32
Identifier=Benzene FormalCharge=2 Multiplicity=1
H 0.9485121891297854 1.8658035844235452 4.052931841123851
N -0.6706520982571323 -0.31554451156222413 6.58299366273117
N 0.14194233666894113 -1.3594139707027946 6.541909669470415
C 0.08860710966349683 0.7968611181680995 6.609980216718486
C 1.4183868515864289 -0.9380476128542523 6.541253245025597
C 1.420299648694813 0.43751096195601286 6.58437361373605
H -0.1776674173480046 -2.3526294110450854 6.514592454370687
H -0.30281965968430574 1.804671247824516 6.644147826290469
H 2.284142515805777 -1.5861962709896227 6.511563510843726
H 2.2795317789991962 1.0945861236054704 6.5946273382736385
C -1.087288660372427 -0.6824807216292086 -3.9804484951059944
C -1.0774881105831402 0.7019011476449774 -3.998463129766109
C -0.06317684862112233 -1.2835983683778358 -3.9814656532283133
C -0.04495386257849307 1.2881738736504074 -4.014854914024565
C 1.1407452309162935 -0.6001176426960053 -4.000252695149642
C 1.1492215328478959 0.5872331677879533 -4.016123088351071
H -2.036018778655566 -1.213119994898517 -3.9657397708144178
H -2.018575484552592 1.246160095351949 -3.9969934755800667
H -0.06396375524083597 -2.3706429054826406 -3.9673548559613074
H -0.030241024974356028 2.3751071856598123 -4.028467683602713
H 2.0747321306591684 -1.1564401608976351 -4.000532365219334
H 2.091025689260137 1.1300155996346761 -4.030352557235036
H 0.6527350838178446 0.9210961207200021 -1.178947246018881
N -0.7316937829876667 -0.4923035924052961 1.620875920875406
N 0.08278616148250352 -1.535344456485694 1.6376448668980046
C 0.025687733063986713 0.6214761983792255 1.6066817478304989
C 1.358594845432769 -1.112087791932457 1.6344282567697468
C 1.3582004494599855 0.2638439172230696 1.6146462029817712
H -0.23514882446261712 -2.529340426113499 1.650931408960048
H -0.36732070909548065 1.629131150181889 1.5905418900948232
H 2.225521123578551 -1.759217790033947 1.6453415031829834
H 2.216366172197378 0.9223678356854177 1.6065568779360782
