
    -----------------------------------------------------------------------
          Psi4: An Open-Source Ab Initio Electronic Structure Package
                               Psi4 1.11 release

                         Git: Rev {} zzzzzzz 


    D. G. A. Smith, L. A. Burns, A. C. Simmonett, R. M. Parrish,
    M. C. Schieber, R. Galvelis, P. Kraus, H. Kruse, R. Di Remigio,
    A. Alenaizan, A. M. James, S. Lehtola, J. P. Misiewicz, M. Scheurer,
    R. A. Shaw, J. B. Schriber, Y. Xie, Z. L. Glick, D. A. Sirianni,
    J. S. O'Brien, J. M. Waldrop, A. Kumar, E. G. Hohenstein,
    B. P. Pritchard, B. R. Brooks, H. F. Schaefer III, A. Yu. Sokolov,
    K. Patkowski, A. E. DePrince III, U. Bozkaya, R. A. King,
    F. A. Evangelista, J. M. Turney, T. D. Crawford, C. D. Sherrill,
    J. Chem. Phys. 152(18) 184108 (2020). https://doi.org/10.1063/5.0006002

                            Additional Code Authors
    E. T. Seidl, C. L. Janssen, E. F. Valeev, M. L. Leininger,
    J. F. Gonthier, R. M. Richard, H. R. McAlexander, M. Saitow, X. Wang,
    P. Verma, M. H. Lechner, A. Jiang, S. Behnle, A. G. Heide,
    M. F. Herbst, D. L. Poole, T. Győri, E. C. Mitchell, J. P. Pederson,
    and A. M. Wallace

             Previous Authors, Complete List of Code Contributors,
                       and Citations for Specific Modules
    https://github.com/psi4/psi4/blob/master/codemeta.json
    https://github.com/psi4/psi4/graphs/contributors
    https://psicode.org/psi4manual/master/introduction.html#citing-psifour

    -----------------------------------------------------------------------


    Psi4 started on: Monday, 28 September 2026 11:24AM

    Process ID: 76559
    Host:       Samuels-MacBook-Pro.local
    PSIDATADIR: /Users/samuelmace/miniforge3/envs/psi4env/share/psi4
    Memory:     500.0 MiB
    Threads:    1
    Addons:     a̶d̶c̶c̶, a̶m̶b̶i̶t̶, bse, c̶c̶t̶3̶, c̶f̶o̶u̶r̶, c̶h̶e̶m̶p̶s̶2̶, c̶p̶p̶e̶, ddx, dftd3,
                d̶f̶t̶d̶4̶, dkh, ecpint, einsums, f̶o̶r̶t̶e̶, gauxc, g̶c̶p̶, g̶d̶m̶a̶,
                g̶e̶o̶m̶e̶t̶r̶i̶c̶, g̶p̶u̶_̶d̶f̶c̶c̶, i̶n̶t̶e̶g̶r̶a̶t̶o̶r̶x̶x̶, i̶p̶i̶,
                l̶i̶b̶e̶f̶p̶, m̶d̶i̶, m̶p̶2̶d̶, m̶r̶c̶c̶, ooo, o̶p̶e̶n̶f̶e̶r̶m̶i̶o̶n̶p̶s̶i̶4̶,
                pcmsolver, p̶s̶i̶4̶f̶o̶c̶k̶c̶i̶, p̶s̶i̶x̶a̶s̶, p̶y̶e̶i̶n̶s̶u̶m̶s̶, r̶e̶s̶p̶,
                s̶i̶m̶i̶n̶t̶, s̶n̶s̶m̶p̶2̶, v̶2̶r̶d̶m̶_̶c̶a̶s̶s̶c̶f̶

  Memory set to   3.725 GiB by Python driver.
  Threads set to 14 by Python driver.

Scratch directory: /tmp/
  PCM or DDX continuum solvation does not make use of molecular symmetry: further calculations in C1 point group.
   => Libint2 <=

    Primary   basis highest AM E, G, H:  7, 6, 3
    Auxiliary basis highest AM E, G, H:  7, 7, 4
    Onebody   basis highest AM E, G, H:  -, -, -
    Solid Harmonics ordering:            Gaussian

*** tstart() called on Samuels-MacBook-Pro.local
*** at Mon Sep 28 11:24:56 2026

   => Loading Basis Set <=

    Name: MYBASIS
    Role: ORBITAL
    Keyword: BASIS
    atoms 1-4, 6, 9-13, 15, 17, 19, 21-24, 28-30, 32, 35 entry C          line    68 inputblock mybasis 
    atoms 5, 7, 16, 20, 25-26, 31, 33-34, 75, 78, 81     entry O          line   102 inputblock mybasis 
    atoms 8, 14, 18, 27                                  entry N          line     5 inputblock mybasis 
    atoms 36-73, 76-77, 79-80, 82-83                     entry H          line    90 inputblock mybasis 
    atoms 74                                             entry CA         line    27 inputblock mybasis 


         ---------------------------------------------------------
                                   SCF
               by Justin Turney, Rob Parrish, Andy Simmonett
                          and Daniel G. A. Smith
                              RKS Reference
                       14 Threads,   3814 MiB Core
         ---------------------------------------------------------

  ==> Geometry <==

    Molecular point group: c1
    Full point group: C1

    Geometry (in Angstrom), charge = 2, multiplicity = 1:

       Center              X                  Y                   Z               Mass       
    ------------   -----------------  -----------------  -----------------  -----------------
         C           -5.441235621900     8.243669810500     1.293475135500    12.000000000000
         C           -5.226731845200     7.089677155900     0.700914046400    12.000000000000
         C           -6.180295377900     5.945975533600     0.718288709500    12.000000000000
         C           -6.646288680300     5.624233202200    -0.682546893000    12.000000000000
         O           -7.605581325400     4.555653518700    -0.676963092900    15.994914619570
         C           -7.097706558800     3.318859178700    -0.648769098800    12.000000000000
         O           -5.913569124500     3.040302798100    -0.615347841900    15.994914619570
         N           -8.089934377800     2.407143572900    -0.663452913700    14.003074004430
         C           -7.800253402700     0.994696309900    -0.651523735200    12.000000000000
         C           -7.436129949100     0.498185999800     0.741606652800    12.000000000000
         C           -7.460970942500    -1.011086803300     0.873601681100    12.000000000000
         C           -6.513021834000    -1.785785155100    -0.021684223400    12.000000000000
         C           -5.055672226200    -1.657061111500     0.370516165800    12.000000000000
         N           -4.264253254000    -2.639783116600    -0.357732781700    14.003074004430
         C           -3.354936649200    -3.407565895900     0.187035639600    12.000000000000
         O           -3.120081914900    -3.451470426200     1.413536637000    15.994914619570
         C           -2.569966123200    -4.317997186200    -0.725533043900    12.000000000000
         N           -1.204317159900    -4.245360068900    -0.255529569400    14.003074004430
         C           -0.166287678900    -4.713168291500    -1.061685573800    12.000000000000
         O           -0.328276274200    -5.088712985200    -2.184553527400    15.994914619570
         C            1.170906542300    -4.803987780900    -0.348134151200    12.000000000000
         C            1.642898379100    -6.242564647000    -0.510267163800    12.000000000000
         C            0.721444706500    -7.307371804500     0.076093075800    12.000000000000
         C            0.846607447800    -7.448309440100     1.554496445000    12.000000000000
         O            0.078589557800    -6.952088103500     2.373238261000    15.994914619570
         O            1.873102899700    -8.177944709900     1.918115397700    15.994914619570
         N            1.073666922500    -4.362518581200     1.037271182200    14.003074004430
         C            2.323221213700    -4.458311091400     1.785248605600    12.000000000000
         C           -3.155945130900    -5.725855544300    -0.526528172400    12.000000000000
         C           -2.927435773400    -6.678788371300    -1.676919434500    12.000000000000
         O           -2.602508497700    -6.230287498200     0.692885871400    15.994914619570
         C           -4.463799685500    -0.327112157800    -0.048245163600    12.000000000000
         O           -4.432705216600     0.005491789100    -1.198776902800    15.994914619570
         O           -3.926938915300     0.311441723200     0.978641752500    15.994914619570
         C           -3.367065629000     1.616117252000     0.652868885700    12.000000000000
         H           -4.727220746800     9.052091207700     1.247921249300     1.007825032230
         H           -6.344310269000     8.434274725400     1.858851724600     1.007825032230
         H           -4.318553452300     6.926805447200     0.135461722700     1.007825032230
         H           -5.697092322300     5.062481640000     1.132026181200     1.007825032230
         H           -7.040254181100     6.186711018700     1.342414258800     1.007825032230
         H           -7.172537221100     6.470340328300    -1.118801384600     1.007825032230
         H           -5.806262967100     5.351052232900    -1.316604578000     1.007825032230
         H           -9.039731400500     2.729847095100    -0.647764456300     1.007825032230
         H           -6.974011976900     0.815878190500    -1.338310343700     1.007825032230
         H           -8.684024621800     0.466585586900    -1.017240915600     1.007825032230
         H           -6.469443346600     0.908779697800     1.014819835100     1.007825032230
         H           -8.157623343600     0.897998460200     1.451691919700     1.007825032230
         H           -7.273528480000    -1.280330283800     1.914861934900     1.007825032230
         H           -8.471284970000    -1.351663825900     0.643211022200     1.007825032230
         H           -6.632236018200    -1.461715560900    -1.053152066500     1.007825032230
         H           -6.785921240400    -2.838830301200     0.030435122800     1.007825032230
         H           -4.927810760700    -1.836024613800     1.433551096800     1.007825032230
         H           -4.347433782300    -2.566543108200    -1.362604409800     1.007825032230
         H           -2.649478391900    -4.043417809100    -1.775473833600     1.007825032230
         H           -0.989788899000    -3.335957665300     0.120063509500     1.007825032230
         H            1.880259858800    -4.190143354200    -0.906383614300     1.007825032230
         H            1.696033901000    -6.411771821700    -1.582216662200     1.007825032230
         H            2.650455225500    -6.361620717100    -0.123335248300     1.007825032230
         H           -0.313489237600    -7.090574578000    -0.173370280200     1.007825032230
         H            0.993076408000    -8.259564221300    -0.371950729800     1.007825032230
         H            1.909129981500    -8.316507426700     2.878262325600     1.007825032230
         H            0.850328088300    -3.384494606400     1.026261990800     1.007825032230
         H            3.157344638800    -3.980935883500     1.271418905200     1.007825032230
         H            2.582227673600    -5.498153492800     1.964838499900     1.007825032230
         H            2.179990885500    -3.973669727400     2.748822490500     1.007825032230
         H           -4.236053711800    -5.609121830800    -0.400956972200     1.007825032230
         H           -1.880209123400    -6.845269601400    -1.885209408200     1.007825032230
         H           -3.408827649200    -7.633534952100    -1.480735183800     1.007825032230
         H           -3.375273858100    -6.276885383700    -2.581967538500     1.007825032230
         H           -2.978121417400    -7.101042873800     0.856381550000     1.007825032230
         H           -2.510279272400     1.490567825400    -0.005446224000     1.007825032230
         H           -3.063858500900     2.041872789700     1.604237247800     1.007825032230
         H           -4.121371472000     2.219666585800     0.169872644100     1.007825032230
         CA          -1.208877444800    -4.919947222700     2.218550282600    39.962590863000
         O           -3.062157806400    -5.020306729800     3.647588202100    15.994914619570
         H           -3.730281909700    -4.517434856800     3.165521393900     1.007825032230
         H           -3.455685359800    -5.363436854100     4.455884412300     1.007825032230
         O           -0.928416665400    -2.558333590700     2.611479583700    15.994914619570
         H           -0.565638188800    -1.961457154000     3.273099204300     1.007825032230
         H           -1.828611940200    -2.271282542900     2.402432302200     1.007825032230
         O           -0.079097663200    -4.960714058400     4.287369814400    15.994914619570
         H            0.315517774100    -5.836307085400     4.367510016300     1.007825032230
         H           -0.048116271300    -4.539233946800     5.152185011200     1.007825032230

  Running in c1 symmetry.

  Rotational constants: A =      0.00153  B =      0.00104  C =      0.00068 [cm^-1]
  Rotational constants: A =     45.75443  B =     31.18776  C =     20.47433 [MHz]
  Nuclear repulsion = 5447.479722449372275

  Charge       = 2
  Multiplicity = 1
  Electrons    = 318
  Nalpha       = 159
  Nbeta        = 159

  ==> Algorithm <==

  SCF Algorithm Type is DF.
  DIIS enabled.
  MOM disabled.
  Fractional occupation disabled.
  Guess Type is CORE.
  Energy threshold   = 1.00e-06
  Density threshold  = 1.00e-06
  Integral threshold = 1.00e-12

  ==> Primary Basis <==

  Basis Set: MYBASIS
    Blend: MYBASIS
    Number of shells: 370
    Number of basis functions: 776
    Number of Cartesian functions: 816
    Spherical Harmonics?: true
    Max angular momentum: 2

  ==> DFT Potential <==

   => LibXC <=

    Version 7.1.2
    S. Lehtola, C. Steigemann, M. J. T. Oliveira, and M. A. L. Marques,  SoftwareX 7, 1–5 (2018) (10.1016/j.softx.2017.11.002)

   => Composite Functional: M06-2X <= 

    Hybrid M06-2X Meta-GGA XC Functional  (10.1007/s00214-007-0310-x)
    Y. Zhao and D. G. Truhlar,  Theor. Chem. Acc., 120, 215, 2008


    Deriv               =              1
    GGA                 =           TRUE
    Meta                =           TRUE

    Exchange Hybrid     =           TRUE
    MP2 Hybrid          =          FALSE

   => Exchange Functionals <=

    1.0000   XC_HYB_MGGA_X_M06_2X

   => Exact (HF) Exchange <=

    0.5400               HF 

   => Correlation Functionals <=

    1.0000   XC_MGGA_C_M06_2X

   => LibXC Density Thresholds  <==

    XC_MGGA_C_M06_2X:  1.00E-12 
    XC_HYB_MGGA_X_M06_2X:  1.00E-15 

   => Molecular Quadrature <=

    Radial Scheme          =       TREUTLER
    Pruning Scheme         =           NONE
    Nuclear Scheme         =       TREUTLER

    Blocking Scheme        =         OCTREE
    BS radius alpha        =              1
    Pruning alpha          =              1
    Radial Points          =             75
    Spherical Points       =            302
    Total Points           =        1685856
    Total Blocks           =          11494
    Max Points             =            256
    Max Functions          =            377
    Weights Tolerance      =       1.00E-15

   => Loading Basis Set <=

    Name: MYJKFIT
    Role: JKFIT
    Keyword: DF_BASIS_SCF
    atoms 1-4, 6, 9-13, 15, 17, 19, 21-24, 28-30, 32, 35 entry C          line   167 inputblock myjkfit 
    atoms 5, 7, 16, 20, 25-26, 31, 33-34, 75, 78, 81     entry O          line   247 inputblock myjkfit 
    atoms 8, 14, 18, 27                                  entry N          line     5 inputblock myjkfit 
    atoms 36-73, 76-77, 79-80, 82-83                     entry H          line   229 inputblock myjkfit 
    atoms 74                                             entry CA         line    67 inputblock myjkfit 

  +----------------------------------------------------------------+
  |                                                                |
  |                        888      888 Y8b    d8Y                 |
  |                        888      888  Y8b  d8Y                  |
  |                        888      888   Y8888Y                   |
  |                    .d88888  .d88888    Y88Y                    |
  |                   d88  888 d88  888    d88b                    |
  |                   888  888 888  888   d8888b                   |
  |                   Y88b 888 Y88b 888  d8Y  Y8b                  |
  |                     Y88888   Y88888 d8Y    Y8b                 |
  |                                                                |
  |                 https://ddsolvation.github.io/ddX/             |
  |                         Version: 0.7.0                         |
  |                                                                |
  +----------------------------------------------------------------+
    enable_fmm              = True
    eta                     = 0.1
    fmm_local_lmax          = 6
    fmm_multipole_lmax      = 9
    incore                  = False
    jacobi_n_diis           = 20
    lmax                    = 9
    logfile                 = 
    maxiter                 = 100
    n_lebedev               = 302
    n_proc                  = 14
    shift                   = 0.0
    solvent_kappa           = 0.0
    solvent_epsilon         = 78.3553
    solvent_epsilon_optical = 1.776
    tol                     = 1e-08

    DDX numerical integration setup:

    dft_block_scheme     = ATOMIC
    dft_nuclear_scheme   = BECKE
    dft_pruning_scheme   = ROBUST
    dft_radial_points    = 35
    dft_radial_scheme    = BECKE
    dft_spherical_points = 110

    Cavity sphere setup (in Angstrom):

    Charge       X            Y            Z          Radius  
    ------   ----------   ----------   ----------   ----------
      6.00    -5.441236     8.243670     1.293475     2.118050
      6.00    -5.226732     7.089677     0.700914     2.118050
      6.00    -6.180295     5.945976     0.718289     2.118050
      6.00    -6.646289     5.624233    -0.682547     2.118050
      8.00    -7.605581     4.555654    -0.676963     1.925000
      6.00    -7.097707     3.318859    -0.648769     2.118050
      8.00    -5.913569     3.040303    -0.615348     1.925000
      7.00    -8.089934     2.407144    -0.663453     2.013000
      6.00    -7.800253     0.994696    -0.651524     2.118050
      6.00    -7.436130     0.498186     0.741607     2.118050
      6.00    -7.460971    -1.011087     0.873602     2.118050
      6.00    -6.513022    -1.785785    -0.021684     2.118050
      6.00    -5.055672    -1.657061     0.370516     2.118050
      7.00    -4.264253    -2.639783    -0.357733     2.013000
      6.00    -3.354937    -3.407566     0.187036     2.118050
      8.00    -3.120082    -3.451470     1.413537     1.925000
      6.00    -2.569966    -4.317997    -0.725533     2.118050
      7.00    -1.204317    -4.245360    -0.255530     2.013000
      6.00    -0.166288    -4.713168    -1.061686     2.118050
      8.00    -0.328276    -5.088713    -2.184554     1.925000
      6.00     1.170907    -4.803988    -0.348134     2.118050
      6.00     1.642898    -6.242565    -0.510267     2.118050
      6.00     0.721445    -7.307372     0.076093     2.118050
      6.00     0.846607    -7.448309     1.554496     2.118050
      8.00     0.078590    -6.952088     2.373238     1.925000
      8.00     1.873103    -8.177945     1.918115     1.925000
      7.00     1.073667    -4.362519     1.037271     2.013000
      6.00     2.323221    -4.458311     1.785249     2.118050
      6.00    -3.155945    -5.725856    -0.526528     2.118050
      6.00    -2.927436    -6.678788    -1.676919     2.118050
      8.00    -2.602508    -6.230287     0.692886     1.925000
      6.00    -4.463800    -0.327112    -0.048245     2.118050
      8.00    -4.432705     0.005492    -1.198777     1.925000
      8.00    -3.926939     0.311442     0.978642     1.925000
      6.00    -3.367066     1.616117     0.652869     2.118050
      1.00    -4.727221     9.052091     1.247921     1.587300
      1.00    -6.344310     8.434275     1.858852     1.587300
      1.00    -4.318553     6.926805     0.135462     1.587300
      1.00    -5.697092     5.062482     1.132026     1.587300
      1.00    -7.040254     6.186711     1.342414     1.587300
      1.00    -7.172537     6.470340    -1.118801     1.587300
      1.00    -5.806263     5.351052    -1.316605     1.587300
      1.00    -9.039731     2.729847    -0.647764     1.587300
      1.00    -6.974012     0.815878    -1.338310     1.587300
      1.00    -8.684025     0.466586    -1.017241     1.587300
      1.00    -6.469443     0.908780     1.014820     1.587300
      1.00    -8.157623     0.897998     1.451692     1.587300
      1.00    -7.273528    -1.280330     1.914862     1.587300
      1.00    -8.471285    -1.351664     0.643211     1.587300
      1.00    -6.632236    -1.461716    -1.053152     1.587300
      1.00    -6.785921    -2.838830     0.030435     1.587300
      1.00    -4.927811    -1.836025     1.433551     1.587300
      1.00    -4.347434    -2.566543    -1.362604     1.587300
      1.00    -2.649478    -4.043418    -1.775474     1.587300
      1.00    -0.989789    -3.335958     0.120064     1.587300
      1.00     1.880260    -4.190143    -0.906384     1.587300
      1.00     1.696034    -6.411772    -1.582217     1.587300
      1.00     2.650455    -6.361621    -0.123335     1.587300
      1.00    -0.313489    -7.090575    -0.173370     1.587300
      1.00     0.993076    -8.259564    -0.371951     1.587300
      1.00     1.909130    -8.316507     2.878262     1.587300
      1.00     0.850328    -3.384495     1.026262     1.587300
      1.00     3.157345    -3.980936     1.271419     1.587300
      1.00     2.582228    -5.498153     1.964838     1.587300
      1.00     2.179991    -3.973670     2.748822     1.587300
      1.00    -4.236054    -5.609122    -0.400957     1.587300
      1.00    -1.880209    -6.845270    -1.885209     1.587300
      1.00    -3.408828    -7.633535    -1.480735     1.587300
      1.00    -3.375274    -6.276885    -2.581968     1.587300
      1.00    -2.978121    -7.101043     0.856382     1.587300
      1.00    -2.510279     1.490568    -0.005446     1.587300
      1.00    -3.063859     2.041873     1.604237     1.587300
      1.00    -4.121371     2.219667     0.169873     1.587300
     20.00    -1.208877    -4.919947     2.218550     1.869450
      8.00    -3.062158    -5.020307     3.647588     1.925000
      1.00    -3.730282    -4.517435     3.165521     1.587300
      1.00    -3.455685    -5.363437     4.455884     1.587300
      8.00    -0.928417    -2.558334     2.611480     1.925000
      1.00    -0.565638    -1.961457     3.273099     1.587300
      1.00    -1.828612    -2.271283     2.402432     1.587300
      8.00    -0.079098    -4.960714     4.287370     1.925000
      1.00     0.315518    -5.836307     4.367510     1.587300
      1.00    -0.048116    -4.539234     5.152185     1.587300

    Cavity sphere setup (in Bohr):

    Charge       X            Y            Z          Radius  
    ------   ----------   ----------   ----------   ----------
      6.00   -10.282445    15.578278     2.444314     4.002534
      6.00    -9.877092    13.397548     1.324536     4.002534
      6.00   -11.679066    11.236265     1.357369     4.002534
      6.00   -12.559665    10.628260    -1.289827     4.002534
      8.00   -14.372466     8.608937    -1.279275     3.637723
      6.00   -13.412722     6.271735    -1.225996     4.002534
      8.00   -11.175026     5.745340    -1.162839     3.637723
      7.00   -15.287760     4.548842    -1.253744     3.804019
      6.00   -14.740343     1.879704    -1.231201     4.002534
      6.00   -14.052249     0.941435     1.401433     4.002534
      6.00   -14.099192    -1.910677     1.650868     4.002534
      6.00   -12.307828    -3.374645    -0.040977     4.002534
      6.00    -9.553836    -3.131392     0.700174     4.002534
      7.00    -8.058271    -4.988467    -0.676017     3.804019
      6.00    -6.339911    -6.439366     0.353446     4.002534
      8.00    -5.896100    -6.522334     2.671197     3.637723
      6.00    -4.856532    -8.159832    -1.371059     4.002534
      7.00    -2.275830    -8.022568    -0.482881     3.804019
      6.00    -0.314238    -8.906597    -2.006295     4.002534
      8.00    -0.620352    -9.616274    -4.128208     3.637723
      6.00     2.212693    -9.078221    -0.657878     4.002534
      6.00     3.104628   -11.796738    -0.964265     4.002534
      6.00     1.363333   -13.808931     0.143795     4.002534
      6.00     1.599856   -14.075265     2.937573     4.002534
      8.00     0.148513   -13.137543     4.484770     3.637723
      8.00     3.539651   -15.454076     3.624713     3.637723
      7.00     2.028936    -8.243965     1.960158     3.804019
      6.00     4.390252    -8.424987     3.373631     4.002534
      6.00    -5.963872   -10.820299    -0.994994     4.002534
      6.00    -5.532052   -12.621081    -3.168918     4.002534
      8.00    -4.918028   -11.773537     1.309365     3.637723
      6.00    -8.435359    -0.618152    -0.091170     4.002534
      8.00    -8.376599     0.010378    -2.265360     3.637723
      8.00    -7.420839     0.588540     1.849365     3.637723
      6.00    -6.362832     3.054019     1.233743     4.002534
      1.00    -8.933153    17.105973     2.358229     2.999562
      1.00   -11.989009    15.938469     3.512721     2.999562
      1.00    -8.160883    13.089765     0.255986     2.999562
      1.00   -10.765944     9.566704     2.139219     2.999562
      1.00   -13.304152    11.691189     2.536795     2.999562
      1.00   -13.554131    12.227171    -2.114228     2.999562
      1.00   -10.972247    10.112023    -2.488022     2.999562
      1.00   -17.082617     5.158663    -1.224097     2.999562
      1.00   -13.178973     1.541786    -2.529040     2.999562
      1.00   -16.410428     0.881719    -1.922307     2.999562
      1.00   -12.225476     1.717345     1.917732     2.999562
      1.00   -15.415674     1.696971     2.743300     2.999562
      1.00   -13.744977    -2.419474     3.618565     2.999562
      1.00   -16.008409    -2.554274     1.215493     2.999562
      1.00   -12.533110    -2.762242    -1.990169     2.999562
      1.00   -12.823533    -5.364612     0.057514     2.999562
      1.00    -9.312213    -3.469584     2.709019     2.999562
      1.00    -8.215459    -4.850064    -2.574949     2.999562
      1.00    -5.006789    -7.640952    -3.355159     2.999562
      1.00    -1.870430    -6.304046     0.226887     2.999562
      1.00     3.553176    -7.918223    -1.712817     2.999562
      1.00     3.205040   -12.116493    -2.989956     2.999562
      1.00     5.008634   -12.021721    -0.233070     2.999562
      1.00    -0.592409   -13.399244    -0.327622     2.999562
      1.00     1.876642   -15.608314    -0.702885     2.999562
      1.00     3.607733   -15.715921     5.439128     2.999562
      1.00     1.606887    -6.395768     1.939354     2.999562
      1.00     5.966517    -7.522879     2.402634     2.999562
      1.00     4.879703   -10.390004     3.713007     2.999562
      1.00     4.119586    -7.509147     5.194522     2.999562
      1.00    -8.004981   -10.599704    -0.757699     2.999562
      1.00    -3.553080   -12.935685    -3.562529     2.999562
      1.00    -6.441751   -14.425290    -2.798184     2.999562
      1.00    -6.378343   -11.861594    -4.879212     2.999562
      1.00    -5.627834   -13.419026     1.618327     2.999562
      1.00    -4.743740     2.816765    -0.010292     2.999562
      1.00    -5.789853     3.858580     3.031569     2.999562
      1.00    -7.788263     4.194562     0.321013     2.999562
     20.00    -2.284447    -9.297353     4.192452     3.532749
      8.00    -5.786640    -9.487005     6.892943     3.637723
      1.00    -7.049211    -8.536715     5.981968     2.999562
      1.00    -6.530299   -10.135427     8.420401     2.999562
      8.00    -1.754453    -4.834550     4.934981     3.637723
      1.00    -1.068901    -3.706617     6.185261     2.999562
      1.00    -3.455576    -4.292102     4.539939     2.999562
      8.00    -0.149473    -9.374391     8.101955     3.637723
      1.00     0.596242   -11.029022     8.253398     2.999562
      1.00    -0.090927    -8.577909     9.736219     2.999562

  ==> Integral Setup <==

  ==> DiskDFJK: Density-Fitted J/K Matrices <==

    J tasked:                  Yes
    K tasked:                  Yes
    wK tasked:                  No
    OpenMP threads:             14
    Integrals threads:          14
    Memory [MiB]:             2574
    Algorithm:                Disk
    Integral Cache:           NONE
    Schwarz Cutoff:          1E-12
    Fitting Condition:       1E-10

   => Auxiliary Basis Set <=

  Basis Set: MYJKFIT
    Blend: MYJKFIT
    Number of shells: 1258
    Number of basis functions: 3834
    Number of Cartesian functions: 4529
    Spherical Harmonics?: true
    Max angular momentum: 4

  Cached 1.1% of DFT collocation blocks in 0.280 [GiB].

  Minimum eigenvalue in the overlap matrix is 8.4461642593E-04.
  Reciprocal condition number of the overlap matrix is 1.0894452288E-04.
    Using symmetric orthogonalization.

  ==> Pre-Iterations <==

  SCF Guess: Core (One-Electron) Hamiltonian.

   -------------------------------------------------------
    Irrep   Nso     Nmo     Nalpha   Nbeta   Ndocc  Nsocc
   -------------------------------------------------------
     A        776     776     159     159     159       0
   -------------------------------------------------------
    Total     776     776     159     159     159       0
   -------------------------------------------------------

  ==> Iterations <==

                           Total Energy        Delta E     RMS |[F,P]|

   @DF-RKS iter   1: -1212.21543880463287   -1.21222e+03   3.39152e-02 DIIS/ADIIS
   @DF-RKS iter   2:  -122.77706317600519    1.08944e+03   4.53908e-02 DIIS/ADIIS
   @DF-RKS iter   3: -1911.44799434703918   -1.78867e+03   3.34467e-02 DIIS/ADIIS
   @DF-RKS iter   4: -2290.66851545114059   -3.79221e+02   2.01240e-02 DIIS/ADIIS
   @DF-RKS iter   5: -2035.39685252352501    2.55272e+02   3.32387e-02 DIIS/ADIIS
   @DF-RKS iter   6: -2571.95928120733242   -5.36562e+02   1.36220e-02 DIIS/ADIIS
   @DF-RKS iter   7: -2520.34370730598266    5.16156e+01   1.63506e-02 DIIS/ADIIS
   @DF-RKS iter   8: -2665.74412967649232   -1.45400e+02   6.05683e-03 DIIS/ADIIS
   @DF-RKS iter   9: -2655.07915414237277    1.06650e+01   7.74010e-03 DIIS/ADIIS
   @DF-RKS iter  10: -2673.86494109148543   -1.87858e+01   4.28728e-03 DIIS/ADIIS
   @DF-RKS iter  11: -2679.55780413863204   -5.69286e+00   2.83991e-03 DIIS/ADIIS
   @DF-RKS iter  12: -2680.24547548081227   -6.87671e-01   2.70687e-03 DIIS/ADIIS
   @DF-RKS iter  13: -2682.01824898513769   -1.77277e+00   1.67587e-03 DIIS/ADIIS
   @DF-RKS iter  14: -2682.25813538584407   -2.39886e-01   1.50848e-03 DIIS/ADIIS
   @DF-RKS iter  15: -2681.94061150888047    3.17524e-01   1.52794e-03 DIIS/ADIIS
   @DF-RKS iter  16: -2682.67235956828790   -7.31748e-01   9.54406e-04 DIIS/ADIIS
   @DF-RKS iter  17: -2682.72149472618958   -4.91352e-02   7.98943e-04 DIIS/ADIIS
   @DF-RKS iter  18: -2682.77176990109365   -5.02752e-02   7.96853e-04 DIIS/ADIIS
   @DF-RKS iter  19: -2682.84854066757453   -7.67708e-02   6.51765e-04 DIIS/ADIIS
   @DF-RKS iter  20: -2682.93087302121012   -8.23324e-02   4.60226e-04 DIIS/ADIIS
   @DF-RKS iter  21: -2682.97396062494272   -4.30876e-02   3.20769e-04 DIIS/ADIIS
   @DF-RKS iter  22: -2682.98473539865472   -1.07748e-02   2.77886e-04 DIIS/ADIIS
   @DF-RKS iter  23: -2682.99049275601556   -5.75736e-03   2.59871e-04 DIIS/ADIIS
   @DF-RKS iter  24: -2683.00013916033231   -9.64640e-03   1.96369e-04 DIIS/ADIIS
   @DF-RKS iter  25: -2683.00166613399597   -1.52697e-03   1.88600e-04 DIIS/ADIIS
   @DF-RKS iter  26: -2683.00703364051878   -5.36751e-03   1.39204e-04 DIIS/ADIIS
   @DF-RKS iter  27: -2683.00866893884540   -1.63530e-03   1.22505e-04 DIIS/ADIIS
   @DF-RKS iter  28: -2683.01197413840509   -3.30520e-03   6.16276e-05 DIIS
   @DF-RKS iter  29: -2683.01291253992895   -9.38402e-04   2.86304e-05 DIIS
   @DF-RKS iter  30: -2683.01273364144981    1.78898e-04   3.81083e-05 DIIS
   @DF-RKS iter  31: -2683.01321567326386   -4.82032e-04   6.16785e-06 DIIS
   @DF-RKS iter  32: -2683.01326037139052   -4.46981e-05   4.22679e-06 DIIS
   @DF-RKS iter  33: -2683.01327894089991   -1.85695e-05   2.73625e-06 DIIS
   @DF-RKS iter  34: -2683.01330254951972   -2.36086e-05   1.99792e-06 DIIS
   @DF-RKS iter  35: -2683.01330975269866   -7.20318e-06   1.69027e-06 DIIS
   @DF-RKS iter  36: -2683.01331640966828   -6.65697e-06   1.38734e-06 DIIS
   @DF-RKS iter  37: -2683.01331937778741   -2.96812e-06   1.12909e-06 DIIS
   @DF-RKS iter  38: -2683.01332264859911   -3.27081e-06   1.24398e-06 DIIS
   @DF-RKS iter  39: -2683.01332377935387   -1.13075e-06   5.96423e-07 DIIS
   @DF-RKS iter  40: -2683.01332511418877   -1.33483e-06   4.91499e-07 DIIS
   @DF-RKS iter  41: -2683.01332493834661    1.75842e-07   3.38739e-07 DIIS
  Energy and wave function converged.


  ==> Post-Iterations <==

   Electrons on quadrature grid:
      Ntotal   =  317.9994125581 ; deviation = -5.874e-04 

    Orbital Energies [Eh]
    ---------------------

    Doubly Occupied:                                                      

       1A   -146.718431     2A    -20.273213     3A    -20.104055  
       4A    -20.080875     5A    -20.004955     6A    -19.969591  
       7A    -19.952757     8A    -19.943425     9A    -19.925074  
      10A    -19.898415    11A    -19.897417    12A    -19.872193  
      13A    -19.865784    14A    -15.892437    15A    -15.161723  
      16A    -15.101178    17A    -15.081612    18A    -15.068445  
      19A    -15.059832    20A    -12.999325    21A    -12.990078  
      22A    -12.980508    23A    -10.984509    24A    -10.971465  
      25A    -10.958014    26A    -10.948274    27A    -10.912819  
      28A    -10.893304    29A    -10.870572    30A    -10.869891  
      31A    -10.869526    32A    -10.851356    33A    -10.838970  
      34A    -10.820784    35A    -10.819570    36A    -10.808614  
      37A    -10.805569    38A    -10.780520    39A    -10.773433  
      40A    -10.770717    41A    -10.768897    42A    -10.759697  
      43A    -10.733318    44A    -10.706478    45A     -8.976036  
      46A     -3.410094    47A     -2.149266    48A     -2.023838  
      49A     -1.864167    50A     -1.742335    51A     -1.724752  
      52A     -1.618945    53A     -1.507442    54A     -1.481737  
      55A     -1.462100    56A     -1.442335    57A     -1.434557  
      58A     -1.414937    59A     -1.406544    60A     -1.380496  
      61A     -1.362568    62A     -1.353449    63A     -1.323302  
      64A     -1.316358    65A     -1.303970    66A     -1.300001  
      67A     -1.286143    68A     -1.270389    69A     -1.240728  
      70A     -1.167145    71A     -1.161658    72A     -1.150462  
      73A     -1.123996    74A     -1.116892    75A     -1.111186  
      76A     -1.101700    77A     -1.072854    78A     -1.063885  
      79A     -1.051459    80A     -1.040351    81A     -1.016648  
      82A     -1.001574    83A     -0.984268    84A     -0.976227  
      85A     -0.971392    86A     -0.947983    87A     -0.945409  
      88A     -0.940509    89A     -0.935631    90A     -0.933803  
      91A     -0.917335    92A     -0.901447    93A     -0.893396  
      94A     -0.879690    95A     -0.870488    96A     -0.866257  
      97A     -0.863003    98A     -0.851229    99A     -0.848718  
     100A     -0.840390   101A     -0.838339   102A     -0.833363  
     103A     -0.826937   104A     -0.823160   105A     -0.816329  
     106A     -0.808426   107A     -0.807054   108A     -0.799901  
     109A     -0.790446   110A     -0.785945   111A     -0.781240  
     112A     -0.778005   113A     -0.777139   114A     -0.765512  
     115A     -0.754654   116A     -0.749451   117A     -0.746962  
     118A     -0.743710   119A     -0.736652   120A     -0.734550  
     121A     -0.729952   122A     -0.726542   123A     -0.724007  
     124A     -0.721512   125A     -0.712697   126A     -0.702509  
     127A     -0.691144   128A     -0.689424   129A     -0.683500  
     130A     -0.683191   131A     -0.676821   132A     -0.671777  
     133A     -0.666487   134A     -0.663476   135A     -0.660874  
     136A     -0.656403   137A     -0.653993   138A     -0.648332  
     139A     -0.647671   140A     -0.641855   141A     -0.641340  
     142A     -0.624369   143A     -0.619369   144A     -0.616749  
     145A     -0.616647   146A     -0.611235   147A     -0.606423  
     148A     -0.603190   149A     -0.597603   150A     -0.594820  
     151A     -0.591043   152A     -0.588796   153A     -0.582152  
     154A     -0.580911   155A     -0.579452   156A     -0.568160  
     157A     -0.557621   158A     -0.552102   159A     -0.529352  

    Virtual:                                                              

     160A     -0.489877   161A     -0.460981   162A     -0.455605  
     163A     -0.438166   164A     -0.394813   165A     -0.391515  
     166A     -0.361746   167A     -0.323481   168A     -0.286260  
     169A     -0.254865   170A     -0.220646   171A     -0.217507  
     172A     -0.200416   173A     -0.191616   174A     -0.178404  
     175A     -0.162806   176A     -0.152679   177A     -0.146420  
     178A     -0.139412   179A     -0.130016   180A     -0.124192  
     181A     -0.115601   182A     -0.094763   183A     -0.062397  
     184A     -0.056159   185A     -0.047437   186A     -0.035974  
     187A     -0.031763   188A     -0.030340   189A     -0.017687  
     190A     -0.012009   191A     -0.009652   192A     -0.006451  
     193A     -0.002046   194A      0.002076   195A      0.010289  
     196A      0.013132   197A      0.018006   198A      0.020668  
     199A      0.024368   200A      0.028432   201A      0.034340  
     202A      0.036552   203A      0.040203   204A      0.043822  
     205A      0.047296   206A      0.047491   207A      0.050411  
     208A      0.054728   209A      0.056269   210A      0.058073  
     211A      0.062806   212A      0.064052   213A      0.066105  
     214A      0.069140   215A      0.071891   216A      0.073721  
     217A      0.077580   218A      0.080854   219A      0.084495  
     220A      0.086319   221A      0.089251   222A      0.092891  
     223A      0.094641   224A      0.096414   225A      0.099534  
     226A      0.102974   227A      0.104193   228A      0.108218  
     229A      0.110324   230A      0.110549   231A      0.113394  
     232A      0.115413   233A      0.118311   234A      0.120964  
     235A      0.122585   236A      0.124620   237A      0.127194  
     238A      0.128990   239A      0.130670   240A      0.134803  
     241A      0.137798   242A      0.138989   243A      0.144730  
     244A      0.148206   245A      0.160343   246A      0.165838  
     247A      0.168686   248A      0.173836   249A      0.176768  
     250A      0.182224   251A      0.183129   252A      0.187237  
     253A      0.201341   254A      0.213553   255A      0.216009  
     256A      0.226515   257A      0.232591   258A      0.248455  
     259A      0.251599   260A      0.254289   261A      0.257267  
     262A      0.272111   263A      0.272925   264A      0.277097  
     265A      0.289174   266A      0.294067   267A      0.303157  
     268A      0.307305   269A      0.312405   270A      0.320092  
     271A      0.323223   272A      0.325226   273A      0.330593  
     274A      0.331676   275A      0.336687   276A      0.339755  
     277A      0.342702   278A      0.348417   279A      0.360297  
     280A      0.362195   281A      0.365564   282A      0.368042  
     283A      0.376684   284A      0.382294   285A      0.383938  
     286A      0.387693   287A      0.393794   288A      0.397992  
     289A      0.399392   290A      0.400847   291A      0.417839  
     292A      0.421069   293A      0.426839   294A      0.428028  
     295A      0.431229   296A      0.437190   297A      0.438788  
     298A      0.443493   299A      0.450503   300A      0.452019  
     301A      0.456226   302A      0.461363   303A      0.464485  
     304A      0.468234   305A      0.474010   306A      0.478575  
     307A      0.481015   308A      0.490147   309A      0.498207  
     310A      0.502311   311A      0.505228   312A      0.506541  
     313A      0.509515   314A      0.513749   315A      0.518756  
     316A      0.520899   317A      0.522691   318A      0.527434  
     319A      0.531243   320A      0.534773   321A      0.536996  
     322A      0.538501   323A      0.541909   324A      0.543460  
     325A      0.548895   326A      0.553043   327A      0.554292  
     328A      0.556147   329A      0.558466   330A      0.558992  
     331A      0.563856   332A      0.567854   333A      0.569632  
     334A      0.577048   335A      0.578685   336A      0.581041  
     337A      0.583107   338A      0.584122   339A      0.588925  
     340A      0.591564   341A      0.593903   342A      0.595434  
     343A      0.598273   344A      0.599001   345A      0.601210  
     346A      0.604245   347A      0.605832   348A      0.610080  
     349A      0.611872   350A      0.614209   351A      0.616833  
     352A      0.618640   353A      0.619759   354A      0.622920  
     355A      0.624476   356A      0.630513   357A      0.634078  
     358A      0.636112   359A      0.638611   360A      0.646500  
     361A      0.647994   362A      0.652123   363A      0.652902  
     364A      0.655026   365A      0.657138   366A      0.661578  
     367A      0.664210   368A      0.665215   369A      0.674231  
     370A      0.680460   371A      0.683225   372A      0.685624  
     373A      0.689520   374A      0.701154   375A      0.705284  
     376A      0.709744   377A      0.715401   378A      0.721475  
     379A      0.729288   380A      0.740154   381A      0.750156  
     382A      0.752112   383A      0.759524   384A      0.770277  
     385A      0.781925   386A      0.783836   387A      0.790281  
     388A      0.792582   389A      0.803679   390A      0.809494  
     391A      0.815769   392A      0.825666   393A      0.828142  
     394A      0.833187   395A      0.834976   396A      0.855026  
     397A      0.871464   398A      0.872937   399A      0.882957  
     400A      0.888963   401A      0.894874   402A      0.902076  
     403A      0.908831   404A      0.913191   405A      0.919908  
     406A      0.923454   407A      0.924762   408A      0.932958  
     409A      0.939756   410A      0.948910   411A      0.954590  
     412A      0.956189   413A      0.956234   414A      0.967406  
     415A      0.976401   416A      0.978546   417A      0.981526  
     418A      0.992570   419A      0.997456   420A      0.999724  
     421A      1.012355   422A      1.017398   423A      1.020233  
     424A      1.024619   425A      1.029302   426A      1.046420  
     427A      1.047506   428A      1.053399   429A      1.059351  
     430A      1.060819   431A      1.070228   432A      1.076855  
     433A      1.083737   434A      1.089220   435A      1.089574  
     436A      1.103242   437A      1.109626   438A      1.110321  
     439A      1.115878   440A      1.117890   441A      1.130015  
     442A      1.134178   443A      1.135842   444A      1.140289  
     445A      1.155890   446A      1.161253   447A      1.164446  
     448A      1.167655   449A      1.175586   450A      1.178472  
     451A      1.189714   452A      1.197572   453A      1.202988  
     454A      1.206789   455A      1.210475   456A      1.219070  
     457A      1.223444   458A      1.229323   459A      1.238358  
     460A      1.243970   461A      1.249564   462A      1.251496  
     463A      1.252958   464A      1.264742   465A      1.271938  
     466A      1.274596   467A      1.288267   468A      1.292845  
     469A      1.299354   470A      1.305515   471A      1.309705  
     472A      1.321153   473A      1.329065   474A      1.338655  
     475A      1.340586   476A      1.348027   477A      1.353899  
     478A      1.364955   479A      1.384657   480A      1.393901  
     481A      1.395121   482A      1.402114   483A      1.414048  
     484A      1.422238   485A      1.424732   486A      1.435022  
     487A      1.447214   488A      1.452161   489A      1.454800  
     490A      1.455578   491A      1.457927   492A      1.468506  
     493A      1.479835   494A      1.484566   495A      1.491162  
     496A      1.500446   497A      1.504336   498A      1.509965  
     499A      1.518167   500A      1.524864   501A      1.528039  
     502A      1.540526   503A      1.541875   504A      1.544433  
     505A      1.551128   506A      1.555078   507A      1.559042  
     508A      1.559553   509A      1.567056   510A      1.567858  
     511A      1.575293   512A      1.579744   513A      1.586231  
     514A      1.589243   515A      1.599428   516A      1.602613  
     517A      1.606798   518A      1.610802   519A      1.619709  
     520A      1.628414   521A      1.632544   522A      1.635464  
     523A      1.638665   524A      1.640905   525A      1.643683  
     526A      1.650141   527A      1.656004   528A      1.657593  
     529A      1.660161   530A      1.663944   531A      1.673637  
     532A      1.677523   533A      1.678372   534A      1.679881  
     535A      1.684783   536A      1.689594   537A      1.691340  
     538A      1.694797   539A      1.698668   540A      1.701187  
     541A      1.703986   542A      1.708872   543A      1.713006  
     544A      1.715643   545A      1.719384   546A      1.719837  
     547A      1.725294   548A      1.730998   549A      1.736195  
     550A      1.739078   551A      1.741269   552A      1.747187  
     553A      1.749656   554A      1.750446   555A      1.757890  
     556A      1.760510   557A      1.761987   558A      1.764321  
     559A      1.768238   560A      1.770881   561A      1.772184  
     562A      1.773810   563A      1.778202   564A      1.785632  
     565A      1.787567   566A      1.788703   567A      1.798583  
     568A      1.802435   569A      1.806438   570A      1.810008  
     571A      1.817476   572A      1.819783   573A      1.825510  
     574A      1.829240   575A      1.831238   576A      1.833773  
     577A      1.836312   578A      1.840623   579A      1.845361  
     580A      1.852351   581A      1.857894   582A      1.858985  
     583A      1.865488   584A      1.869817   585A      1.877122  
     586A      1.884622   587A      1.886271   588A      1.897552  
     589A      1.901524   590A      1.902830   591A      1.909775  
     592A      1.913077   593A      1.914411   594A      1.921125  
     595A      1.930041   596A      1.936449   597A      1.941779  
     598A      1.949772   599A      1.951799   600A      1.958167  
     601A      1.966637   602A      1.974588   603A      1.995033  
     604A      1.998689   605A      2.012238   606A      2.019648  
     607A      2.032291   608A      2.036887   609A      2.041296  
     610A      2.048139   611A      2.060537   612A      2.062328  
     613A      2.069427   614A      2.072370   615A      2.076643  
     616A      2.082989   617A      2.093183   618A      2.111875  
     619A      2.116347   620A      2.120390   621A      2.127888  
     622A      2.136993   623A      2.144965   624A      2.150960  
     625A      2.156537   626A      2.169353   627A      2.175423  
     628A      2.185832   629A      2.190707   630A      2.195398  
     631A      2.201526   632A      2.204618   633A      2.214342  
     634A      2.216605   635A      2.217340   636A      2.218891  
     637A      2.238306   638A      2.244878   639A      2.247987  
     640A      2.250283   641A      2.260770   642A      2.271505  
     643A      2.276902   644A      2.281055   645A      2.289376  
     646A      2.298870   647A      2.300673   648A      2.303837  
     649A      2.309929   650A      2.314693   651A      2.322485  
     652A      2.329140   653A      2.334406   654A      2.353736  
     655A      2.355437   656A      2.364935   657A      2.372181  
     658A      2.390511   659A      2.394234   660A      2.402350  
     661A      2.405732   662A      2.408473   663A      2.426538  
     664A      2.428816   665A      2.444836   666A      2.450969  
     667A      2.461200   668A      2.464313   669A      2.470351  
     670A      2.476570   671A      2.482019   672A      2.487200  
     673A      2.497208   674A      2.502357   675A      2.509913  
     676A      2.519904   677A      2.522527   678A      2.526922  
     679A      2.537191   680A      2.540861   681A      2.543528  
     682A      2.544343   683A      2.557152   684A      2.564485  
     685A      2.582121   686A      2.583989   687A      2.594830  
     688A      2.598947   689A      2.603554   690A      2.619052  
     691A      2.625967   692A      2.631124   693A      2.642153  
     694A      2.647579   695A      2.661234   696A      2.672874  
     697A      2.678122   698A      2.682264   699A      2.696797  
     700A      2.707464   701A      2.716085   702A      2.717796  
     703A      2.724939   704A      2.729463   705A      2.738272  
     706A      2.739068   707A      2.745187   708A      2.749461  
     709A      2.758573   710A      2.767781   711A      2.769820  
     712A      2.775872   713A      2.779066   714A      2.782033  
     715A      2.786925   716A      2.791711   717A      2.800447  
     718A      2.806953   719A      2.816122   720A      2.824019  
     721A      2.835728   722A      2.836682   723A      2.843094  
     724A      2.856210   725A      2.858711   726A      2.861234  
     727A      2.874048   728A      2.881867   729A      2.883430  
     730A      2.885725   731A      2.891526   732A      2.900635  
     733A      2.910620   734A      2.914540   735A      2.915870  
     736A      2.931769   737A      2.939400   738A      2.944720  
     739A      2.959410   740A      2.963403   741A      2.966802  
     742A      2.978558   743A      2.984460   744A      2.994324  
     745A      2.997839   746A      3.003661   747A      3.016599  
     748A      3.036337   749A      3.040622   750A      3.049033  
     751A      3.053927   752A      3.062749   753A      3.110809  
     754A      3.147531   755A      3.154655   756A      3.169785  
     757A      3.172950   758A      3.198127   759A      3.204460  
     760A      3.248877   761A      3.289381   762A      3.301298  
     763A      3.330269   764A      3.344516   765A      3.361958  
     766A      3.407460   767A      3.408618   768A      3.429569  
     769A      3.482588   770A      3.485671   771A      3.510055  
     772A      3.519007   773A      3.553047   774A      3.636875  
     775A      3.699048   776A      3.742209  

    Final Occupation by Irrep:
              A 
    DOCC [   159 ]
    NA   [   159 ]
    NB   [   159 ]

  @DF-RKS Final Energy: -2683.01332493834661

   => Energetics <=

    Nuclear Repulsion Energy =           5447.4797224493722752
    One-Electron Energy =              -14497.8773311298918998
    Two-Electron Energy =                6554.5946864691986775
    DFT Exchange-Correlation Energy =    -145.4479602604706372
    Empirical Dispersion Energy =           0.0000000000000000
    VV10 Nonlocal Energy =                  0.0000000000000000
    DD Solvation Energy =                -41.7624424665546385
    Total Energy =                      -2683.0133249383461589

Computation Completed


Properties will be evaluated at   0.000000,   0.000000,   0.000000 [a0]

Properties computed using the SCF density matrix


 Multipole Moments:

 ------------------------------------------------------------------------------------
     Multipole            Electronic (a.u.)      Nuclear  (a.u.)        Total (a.u.)
 ------------------------------------------------------------------------------------

 L = 1.  Multiply by 2.5417464519 to convert [e a0] to [Debye]
 Dipole X            :       1758.1909682        -1815.4873509          -57.2963827
 Dipole Y            :       1378.5089076        -1267.8202741          110.6886335
 Dipole Z            :       -395.9100713          358.1162804          -37.7937908
 Magnitude           :                                                  130.2429257

 ------------------------------------------------------------------------------------

*** tstop() called on Samuels-MacBook-Pro.local at Mon Sep 28 11:38:22 2026
Module time:
	user time   =   10121.39 seconds =     168.69 minutes
	system time =      71.33 seconds =       1.19 minutes
	total time  =        806 seconds =      13.43 minutes
Total time:
	user time   =   10121.39 seconds =     168.69 minutes
	system time =      71.33 seconds =       1.19 minutes
	total time  =        806 seconds =      13.43 minutes


Properties will be evaluated at   0.000000,   0.000000,   0.000000 [a0]
OEProp: No title given, name of density matrix used for the following properties is 'SCF density'

 Multipole Moments:

 ------------------------------------------------------------------------------------
     Multipole            Electronic (a.u.)      Nuclear  (a.u.)        Total (a.u.)
 ------------------------------------------------------------------------------------

 L = 1.  Multiply by 2.5417464519 to convert [e a0] to [Debye]
 Dipole X            :       1758.1909682        -1815.4873509          -57.2963827
 Dipole Y            :       1378.5089076        -1267.8202741          110.6886335
 Dipole Z            :       -395.9100713          358.1162804          -37.7937908
 Magnitude           :                                                  130.2429257

 L = 2.  Multiply by 1.3450342976 to convert [e a0^2] to [Debye ang]
 Quadrupole XX       :     -20312.3521767        21177.9173209          865.5651442
 Quadrupole XY       :       3439.6388972        -4271.0923977         -831.4535004
 Quadrupole XZ       :        488.8329172         -328.9657456          159.8671716
 Quadrupole YY       :     -26694.3749208        26187.1423017         -507.2326191
 Quadrupole YZ       :       3518.8241338        -2998.4005945          520.4235393
 Quadrupole ZZ       :      -3339.6445346         3000.2789526         -339.3655820
 Traceless XX        :      -3530.2282993         4389.4711292          859.2428298
 Traceless YY        :      -9912.2510434         9398.6961100         -513.5549335
 Traceless ZZ        :      13442.4793428       -13788.1672391         -345.6878964

 ------------------------------------------------------------------------------------
  Mulliken Charges: (a.u.)
   Center  Symbol    Alpha    Beta     Spin     Total
       1     C     2.74848  2.74848  0.00000  0.50304
       2     C     2.87823  2.87823  0.00000  0.24355
       3     C     3.03616  3.03616  0.00000 -0.07233
       4     C     2.91638  2.91638  0.00000  0.16725
       5     O     4.05295  4.05295  0.00000 -0.10589
       6     C     2.74646  2.74646  0.00000  0.50708
       7     O     4.02648  4.02648  0.00000 -0.05296
       8     N     3.40605  3.40605  0.00000  0.18790
       9     C     2.95169  2.95169  0.00000  0.09662
      10     C     3.06891  3.06891  0.00000 -0.13782
      11     C     2.99811  2.99811  0.00000  0.00378
      12     C     3.02752  3.02752  0.00000 -0.05504
      13     C     2.96022  2.96022  0.00000  0.07956
      14     N     3.46644  3.46644  0.00000  0.06713
      15     C     2.72865  2.72865  0.00000  0.54269
      16     O     4.13708  4.13708  0.00000 -0.27416
      17     C     3.03091  3.03091  0.00000 -0.06181
      18     N     3.60448  3.60448  0.00000 -0.20895
      19     C     2.88620  2.88620  0.00000  0.22760
      20     O     3.96261  3.96261  0.00000  0.07479
      21     C     3.05156  3.05156  0.00000 -0.10312
      22     C     3.01312  3.01312  0.00000 -0.02624
      23     C     2.89086  2.89086  0.00000  0.21828
      24     C     2.58378  2.58378  0.00000  0.83244
      25     O     4.84494  4.84494  0.00000 -1.68988
      26     O     3.94076  3.94076  0.00000  0.11848
      27     N     3.61281  3.61281  0.00000 -0.22561
      28     C     2.97027  2.97027  0.00000  0.05947
      29     C     3.58945  3.58945  0.00000 -1.17890
      30     C     2.73322  2.73322  0.00000  0.53356
      31     O     4.37782  4.37782  0.00000 -0.75563
      32     C     2.87699  2.87699  0.00000  0.24602
      33     O     3.92372  3.92372  0.00000  0.15256
      34     O     3.98914  3.98914  0.00000  0.02171
      35     C     2.89230  2.89230  0.00000  0.21540
      36     H     0.36571  0.36571  0.00000  0.26858
      37     H     0.36831  0.36831  0.00000  0.26337
      38     H     0.36777  0.36777  0.00000  0.26446
      39     H     0.34858  0.34858  0.00000  0.30283
      40     H     0.37499  0.37499  0.00000  0.25002
      41     H     0.37930  0.37930  0.00000  0.24140
      42     H     0.36737  0.36737  0.00000  0.26525
      43     H     0.32453  0.32453  0.00000  0.35094
      44     H     0.36735  0.36735  0.00000  0.26529
      45     H     0.35624  0.35624  0.00000  0.28752
      46     H     0.36076  0.36076  0.00000  0.27847
      47     H     0.35436  0.35436  0.00000  0.29129
      48     H     0.35379  0.35379  0.00000  0.29241
      49     H     0.32367  0.32367  0.00000  0.35266
      50     H     0.38043  0.38043  0.00000  0.23913
      51     H     0.34533  0.34533  0.00000  0.30934
      52     H     0.33380  0.33380  0.00000  0.33240
      53     H     0.33728  0.33728  0.00000  0.32545
      54     H     0.36383  0.36383  0.00000  0.27233
      55     H     0.38987  0.38987  0.00000  0.22026
      56     H     0.34692  0.34692  0.00000  0.30615
      57     H     0.38431  0.38431  0.00000  0.23138
      58     H     0.39860  0.39860  0.00000  0.20281
      59     H     0.67593  0.67593  0.00000 -0.35185
      60     H     0.35968  0.35968  0.00000  0.28063
      61     H     0.30566  0.30566  0.00000  0.38869
      62     H     0.36638  0.36638  0.00000  0.26725
      63     H     0.36332  0.36332  0.00000  0.27336
      64     H     0.41544  0.41544  0.00000  0.16912
      65     H     0.43660  0.43660  0.00000  0.12680
      66     H     0.28264  0.28264  0.00000  0.43473
      67     H     0.38524  0.38524  0.00000  0.22952
      68     H     0.37497  0.37497  0.00000  0.25006
      69     H     0.37103  0.37103  0.00000  0.25795
      70     H     0.23506  0.23506  0.00000  0.52988
      71     H     0.33721  0.33721  0.00000  0.32557
      72     H     0.38494  0.38494  0.00000  0.23011
      73     H     0.38359  0.38359  0.00000  0.23281
      74    CA    15.14714 15.14714  0.00000 -10.29429
      75     O     4.56864  4.56864  0.00000 -1.13727
      76     H     0.15839  0.15839  0.00000  0.68322
      77     H     0.18677  0.18677  0.00000  0.62646
      78     O     3.93385  3.93385  0.00000  0.13230
      79     H     0.29930  0.29930  0.00000  0.40140
      80     H     0.35692  0.35692  0.00000  0.28615
      81     O     3.82030  3.82030  0.00000  0.35940
      82     H     0.27574  0.27574  0.00000  0.44852
      83     H     0.35740  0.35740  0.00000  0.28521

   Total alpha = 159.00000, Total beta = 159.00000, Total charge =  2.00000

  Lowdin Charges: (a.u.)
   Center  Symbol    Alpha    Beta     Spin     Total
       1     C     2.66140  2.66140  0.00000  0.67720
       2     C     2.75864  2.75864  0.00000  0.48272
       3     C     2.96240  2.96240  0.00000  0.07520
       4     C     2.88146  2.88146  0.00000  0.23708
       5     O     3.90639  3.90639  0.00000  0.18722
       6     C     2.90262  2.90262  0.00000  0.19476
       7     O     3.96871  3.96871  0.00000  0.06257
       8     N     3.23586  3.23586  0.00000  0.52828
       9     C     2.90673  2.90673  0.00000  0.18654
      10     C     2.93436  2.93436  0.00000  0.13128
      11     C     2.92842  2.92842  0.00000  0.14317
      12     C     2.94321  2.94321  0.00000  0.11359
      13     C     2.91327  2.91327  0.00000  0.17345
      14     N     3.33296  3.33296  0.00000  0.33408
      15     C     2.88220  2.88220  0.00000  0.23560
      16     O     4.04949  4.04949  0.00000 -0.09898
      17     C     2.96668  2.96668  0.00000  0.06663
      18     N     3.47916  3.47916  0.00000  0.04169
      19     C     2.94437  2.94437  0.00000  0.11126
      20     O     3.93307  3.93307  0.00000  0.13386
      21     C     2.98613  2.98613  0.00000  0.02775
      22     C     2.97649  2.97649  0.00000  0.04702
      23     C     2.98905  2.98905  0.00000  0.02189
      24     C     2.88373  2.88373  0.00000  0.23254
      25     O     4.62240  4.62240  0.00000 -1.24480
      26     O     3.84933  3.84933  0.00000  0.30134
      27     N     3.42778  3.42778  0.00000  0.14443
      28     C     2.94079  2.94079  0.00000  0.11842
      29     C     3.09351  3.09351  0.00000 -0.18703
      30     C     2.97734  2.97734  0.00000  0.04531
      31     O     4.36260  4.36260  0.00000 -0.72520
      32     C     2.90941  2.90941  0.00000  0.18117
      33     O     3.89314  3.89314  0.00000  0.21371
      34     O     3.85402  3.85402  0.00000  0.29196
      35     C     2.84308  2.84308  0.00000  0.31383
      36     H     0.42462  0.42462  0.00000  0.15075
      37     H     0.42659  0.42659  0.00000  0.14682
      38     H     0.42690  0.42690  0.00000  0.14620
      39     H     0.40202  0.40202  0.00000  0.19596
      40     H     0.43040  0.43040  0.00000  0.13920
      41     H     0.43707  0.43707  0.00000  0.12586
      42     H     0.42322  0.42322  0.00000  0.15357
      43     H     0.39014  0.39014  0.00000  0.21973
      44     H     0.42432  0.42432  0.00000  0.15137
      45     H     0.41216  0.41216  0.00000  0.17568
      46     H     0.42389  0.42389  0.00000  0.15221
      47     H     0.41558  0.41558  0.00000  0.16884
      48     H     0.41122  0.41122  0.00000  0.17757
      49     H     0.37476  0.37476  0.00000  0.25047
      50     H     0.44176  0.44176  0.00000  0.11648
      51     H     0.39932  0.39932  0.00000  0.20137
      52     H     0.41583  0.41583  0.00000  0.16834
      53     H     0.40182  0.40182  0.00000  0.19635
      54     H     0.43413  0.43413  0.00000  0.13175
      55     H     0.46334  0.46334  0.00000  0.07333
      56     H     0.41440  0.41440  0.00000  0.17120
      57     H     0.43729  0.43729  0.00000  0.12541
      58     H     0.44856  0.44856  0.00000  0.10287
      59     H     0.54337  0.54337  0.00000 -0.08674
      60     H     0.41761  0.41761  0.00000  0.16479
      61     H     0.38362  0.38362  0.00000  0.23275
      62     H     0.46113  0.46113  0.00000  0.07774
      63     H     0.41982  0.41982  0.00000  0.16037
      64     H     0.46291  0.46291  0.00000  0.07417
      65     H     0.47895  0.47895  0.00000  0.04211
      66     H     0.44571  0.44571  0.00000  0.10857
      67     H     0.46203  0.46203  0.00000  0.07594
      68     H     0.41165  0.41165  0.00000  0.17670
      69     H     0.41791  0.41791  0.00000  0.16418
      70     H     0.48739  0.48739  0.00000  0.02521
      71     H     0.39043  0.39043  0.00000  0.21913
      72     H     0.43912  0.43912  0.00000  0.12177
      73     H     0.42586  0.42586  0.00000  0.14828
      74    CA    14.18608 14.18608  0.00000 -8.37216
      75     O     4.40539  4.40539  0.00000 -0.81077
      76     H     0.38872  0.38872  0.00000  0.22256
      77     H     0.37606  0.37606  0.00000  0.24788
      78     O     3.86893  3.86893  0.00000  0.26215
      79     H     0.38596  0.38596  0.00000  0.22808
      80     H     0.45415  0.45415  0.00000  0.09171
      81     O     3.69321  3.69321  0.00000  0.61359
      82     H     0.37580  0.37580  0.00000  0.24841
      83     H     0.43866  0.43866  0.00000  0.12269

  Total alpha = 159.00000, Total beta = 159.00000, Total charge =  2.00000


  Mayer Bond Indices:

  Irrep: 1 Size: 83 x 83

                 1                   2                   3                   4                   5

    1     0.00000000000000     1.05479042963961     0.01791283244310     0.01737202125024     0.00448400579246
    2     1.05479042963961     0.00000000000000     1.25282624785657     0.07684566739109     0.01213205092891
    3     0.01791283244310     1.25282624785657     0.00000000000000     0.91346006046776     0.02304638536679
    4     0.01737202125024     0.07684566739109     0.91346006046776     0.00000000000000     0.88481498705091
    5     0.00448400579246     0.01213205092891     0.02304638536679     0.88481498705091     0.00000000000000
    6     0.00029223542873     0.00096956409963     0.00530241501300     0.02624713946482     1.16971524627703
    7     0.00234927614098     0.00574453972412     0.00047334043498     0.01578281982559     0.04740013307840
    8     0.00056854945386     0.00087393449274     0.01434711445187     0.02364399012183     0.00923217326498
    9     0.00028492084370     0.00080347069725     0.00503284786580     0.00799034330961     0.02663415848012
   10     0.00042739683371     0.00100295226311     0.00753863904609     0.00816644904366     0.02692164088809
   11     0.00028662359484     0.00060488863179     0.00440440684839     0.00474556562566     0.01478270765981
   12     0.00013812232737     0.00032174146678     0.00188477343435     0.00181897224697     0.00658965732382
   13     0.00007739920520     0.00015155603269     0.00125055661481     0.00123086806757     0.00402956526482
   14     0.00002804533426     0.00006107290484     0.00034472457761     0.00031554174909     0.00119653848825
   15     0.00000522481866     0.00001148577076     0.00006454082268     0.00005951462645     0.00022178857263
   16     0.00000927291912     0.00002185495802     0.00008933686977     0.00007497630749     0.00034622196409
   17     0.00000466149220     0.00000935323171     0.00006259878596     0.00006084602996     0.00020720960577
   18     0.00000085893743     0.00000165116803     0.00001187812632     0.00001191321181     0.00003781855127
   19     0.00000056839866     0.00000109624718     0.00000757017390     0.00000751333832     0.00002431012077
   20     0.00000332898831     0.00000645105430     0.00004301481659     0.00004233941765     0.00013990643097
   21     0.00000114950886     0.00000219641318     0.00001545204335     0.00001538359125     0.00004912719886
   22     0.00000013164606     0.00000024326743     0.00000180096145     0.00000182867389     0.00000562693394
   23     0.00000009520540     0.00000019052125     0.00000118447170     0.00000117933339     0.00000393625726
   24     0.00000001361104     0.00000002493457     0.00000013663916     0.00000010385947     0.00000046127201
   25     0.00000001959480     0.00000003831431     0.00000013459184     0.00000010058047     0.00000059595162
   26     0.00000001990200     0.00000003901658     0.00000024717309     0.00000024420088     0.00000080435163
   27     0.00000014701905     0.00000029332565     0.00000178042026     0.00000175008513     0.00000590540391
   28     0.00000006313334     0.00000012431853     0.00000077699827     0.00000075125497     0.00000255974592
   29     0.00000133820185     0.00000285838263     0.00001572492968     0.00001425521047     0.00005485486188
   30     0.00000160832688     0.00000334538910     0.00001889510355     0.00001786114040     0.00006566355130
   31     0.00000006489547     0.00000013969074     0.00000057242092     0.00000063405578     0.00000227095591
   32     0.00005376265406     0.00010271543889     0.00089153582144     0.00091395969675     0.00289631890064
   33     0.00061856398957     0.00126708164847     0.00982676072509     0.01008176695498     0.03034590150907
   34     0.00152446858149     0.00303615655026     0.02394124247694     0.02407237096335     0.07473918148804
   35     0.00087432099491     0.00182884812196     0.01395714353318     0.01428822212571     0.04048247246667
   36     0.90250238746876     0.01001180563272     0.00733894914374     0.00104542289861     0.00025653652272
   37     0.90573741025955     0.00819169014741     0.00061341208316    -0.00023169905966     0.00001063420184
   38     0.00098782027999     0.89601501794568     0.00339963745196     0.00038055566956     0.00028799828397
   39     0.01553898309864     0.10680157124841     0.74155605870453     0.02770537544484     0.00050176553109
   40     0.00063414011960     0.00807671056858     0.85973455661072     0.00525253807483     0.00911660574004
   41     0.00650305567335     0.01082075929215     0.00293035433879     0.90032122840159     0.00356792790191
   42     0.00042008120398     0.00193426688208    -0.00677698653916     0.81074618255013     0.01237003630269
   43     0.00000522640160     0.00001808562266     0.00017023876567     0.00041906914022     0.00284773267145
   44     0.00018925203718     0.00043476520331     0.00334901965318     0.00359612848492     0.01183131715331
   45     0.00000108153584     0.00000835825666     0.00002899613842     0.00001080838942     0.00042092524668
   46     0.00006328067471     0.00012748103218     0.00122995767822     0.00131932657330     0.00415791497455
   47     0.00014370446477     0.00035678510714     0.00216294880713     0.00208066296118     0.00789910733705
   48     0.00004432405340     0.00012727464470     0.00058768607120     0.00067511235962     0.00262207688745
   49     0.00010795633608     0.00019976847826     0.00176076055531     0.00173214246811     0.00532837543089
   50     0.00001107222383     0.00003629293790     0.00010599689033     0.00010252377464     0.00063980228388
   51     0.00001507690476     0.00003610755536     0.00021222479205     0.00020327369760     0.00078851696357
   52     0.00000048311817     0.00000025517474     0.00001149915494     0.00001145855618     0.00004262766926
   53     0.00000087709967     0.00000159302097     0.00001464182456     0.00001371394919     0.00004223170162
   54     0.00000003119349     0.00000007788208     0.00000039045923     0.00000032154822     0.00000136682540
   55     0.00000024038591     0.00000047423182     0.00000315253134     0.00000301656599     0.00001013377442
   56     0.00000019653633     0.00000038782029     0.00000250758472     0.00000249421028     0.00000815324455
   57     0.00000001264317     0.00000002459174     0.00000016044071     0.00000015962171     0.00000052603703
   58     0.00000011774945     0.00000022328093     0.00000157638877     0.00000156904278     0.00000504972521
   59     0.00000003293599     0.00000005584192     0.00000043945005     0.00000038619671     0.00000135593737
   60     0.00000000073319     0.00000000120610     0.00000001313492     0.00000001437112     0.00000003775551
   61     0.00000000014846     0.00000000029817     0.00000000145115     0.00000000130546     0.00000000571303
   62     0.00000000158107     0.00000000082156     0.00000001936214     0.00000001312269     0.00000005259919
   63     0.00000002364441     0.00000004958558     0.00000025825802     0.00000025694629     0.00000090023667
   64     0.00000000045445     0.00000000129984    -0.00000000241391    -0.00000000269799     0.00000000459293
   65     0.00000003989256     0.00000007557796     0.00000051792621     0.00000053329107     0.00000170310787
   66    -0.00000000057736    -0.00000001673269     0.00000004735974     0.00000006473955    -0.00000011821381
   67     0.00000007165205     0.00000014624015     0.00000090494058     0.00000090653048     0.00000298752252
   68     0.00000094104001     0.00000193970783     0.00001131054602     0.00001064007259     0.00003802619035
   69     0.00000004176523     0.00000008905641     0.00000040238360     0.00000032556023     0.00000148474934
   70     0.00000020441183     0.00000045100367     0.00000253016504     0.00000225523333     0.00000845309930
   71     0.00049163730059     0.00100442395050     0.00772524280001     0.00788658167458     0.02298206175445
   72     0.00000392917736     0.00000970794134     0.00008770216088     0.00006483771204     0.00017777572497
   73     0.00039956661789     0.00079145242501     0.00770611529072     0.00695700408867     0.02309831905237
   74     0.00000079386691     0.00000178971881     0.00000829067290     0.00000786119915     0.00002995431330
   75     0.00000002687500     0.00000004837878     0.00000027882509     0.00000025349567     0.00000096444175
   76    -0.00000005030266    -0.00000014393845    -0.00000067258573    -0.00000062183764    -0.00000241811071
   77    -0.00000000422881    -0.00000001050068    -0.00000007279772    -0.00000008314466    -0.00000022461270
   78     0.00000002639002     0.00000008457858     0.00000015418492     0.00000009552342     0.00000087111411
   79     0.00000000696275     0.00000002340055     0.00000000568508    -0.00000001514255     0.00000015839831
   80     0.00000034507577     0.00000062061623     0.00000622172750     0.00000660770200     0.00001759251529
   81     0.00000193516347     0.00000362900984     0.00002618829532     0.00002630665741     0.00008299691208
   82     0.00000002315946     0.00000004380575     0.00000030851475     0.00000030063822     0.00000099409272
   83     0.00000008005000     0.00000014962456     0.00000105202536     0.00000104472650     0.00000336703645

                 6                   7                   8                   9                  10

    1     0.00029223542873     0.00234927614098     0.00056854945386     0.00028492084370     0.00042739683371
    2     0.00096956409963     0.00574453972412     0.00087393449274     0.00080347069725     0.00100295226311
    3     0.00530241501300     0.00047334043498     0.01434711445187     0.00503284786580     0.00753863904609
    4     0.02624713946482     0.01578281982559     0.02364399012183     0.00799034330961     0.00816644904366
    5     1.16971524627703     0.04740013307840     0.00923217326498     0.02663415848012     0.02692164088809
    6     0.00000000000000     1.83462644030007     1.06692859141004     0.00746063665919     0.00270686770423
    7     1.83462644030007     0.00000000000000    -0.01131312041052     0.06899384833645     0.02143792437939
    8     1.06692859141004    -0.01131312041052     0.00000000000000     1.25119218908313     0.12666459066578
    9     0.00746063665919     0.06899384833645     1.25119218908313     0.00000000000000     0.78421582132876
   10     0.00270686770423     0.02143792437939     0.12666459066578     0.78421582132876     0.00000000000000
   11     0.00212067437141     0.02475184997127     0.05406011502898    -0.00847074008267     1.17248347549661
   12     0.00052258435897     0.00410918113333     0.01278753603740     0.01427563747577     0.00313221700121
   13     0.00034449766188     0.00611136638860     0.00194100250776     0.00054457385349     0.00282866974083
   14     0.00020776384524     0.00132047933542     0.00000894349103     0.00160584274233     0.02185327255481
   15     0.00002902819814     0.00027046386631     0.00003814771241     0.00033532062932     0.00302294681424
   16     0.00004500160321     0.00033537646935     0.00004405000787     0.00068412639433     0.00783759553931
   17     0.00001514943311     0.00020491706374     0.00000959291579     0.00007253859151     0.00042653753552
   18     0.00000291796102     0.00003043030623     0.00000035764082     0.00000125388292     0.00003986798847
   19     0.00000142270463     0.00001846651721     0.00000034031912     0.00000240970590     0.00001049044309
   20     0.00000808710118     0.00010149655558     0.00000193961445     0.00001044117338     0.00005880097150
   21     0.00000275739897     0.00003360513508     0.00000061788481     0.00000213731779     0.00000921269335
   22     0.00000037954171     0.00000387431481     0.00000007286931    -0.00000010222113     0.00000035511337
   23     0.00000020148545     0.00000271823172    -0.00000000649470     0.00000065299110     0.00000357836000
   24     0.00000007999677     0.00000037853666     0.00000022828436     0.00000045920407     0.00000907199615
   25     0.00000021123022     0.00000039969944     0.00000003188416     0.00000468694822     0.00003066284812
   26     0.00000006293679     0.00000042223144     0.00000009964715     0.00000021674506     0.00000416080459
   27     0.00000029779494     0.00000364707234     0.00000019924419     0.00000020058723     0.00000235355524
   28     0.00000013406656     0.00000187138767     0.00000005519948     0.00000032936679     0.00000190400799
   29     0.00000391932311     0.00005760406782     0.00000019339791     0.00004731250171     0.00035880287040
   30     0.00000353510046     0.00006012048573     0.00000122937899     0.00002724212623     0.00024738257290
   31     0.00000031040528     0.00000200754111    -0.00000004818997     0.00000323029511     0.00003124562035
   32     0.00082145752431     0.00906226516904     0.00072117338713     0.00514182253640     0.03867968589104
   33     0.00175725546154     0.02342148858059     0.00015826263411     0.00404053675548     0.01029813547266
   34     0.00414237954668     0.07486384189074     0.00152948067200     0.00424312097324     0.00860677323695
   35     0.00149253661285     0.03680757617122     0.00071401316061     0.00332329077346     0.01240455653165
   36    -0.00002301211155     0.00003158560972     0.00018497223013     0.00007030118024     0.00009923688572
   37    -0.00000486371365     0.00002111328044     0.00001216053831     0.00001394649707     0.00001495922827
   38     0.00008941911362     0.00006978567859     0.00015017137640     0.00006427529546     0.00013648892289
   39     0.00088756640402     0.00510901918374     0.00082071525605     0.00031835934291     0.00042047569126
   40     0.00024616213903     0.00123465945613     0.00395951487359     0.00117734828011     0.00225204992096
   41     0.00641865916607     0.00144310593252     0.00026394162659     0.00019155823589     0.00009558791732
   42     0.00298815994170     0.00547513731384     0.01215971022431     0.00364667465684     0.00623655018028
   43     0.02628126984496     0.00582987916298     0.82379666561988     0.01048558760188     0.00087923266850
   44    -0.00093123300025    -0.00010609481965     0.05017550471905     0.80811412172510     0.00434805742699
   45     0.00573968143129     0.01115083450677     0.03183798171279     0.82462256832825     0.01358171203348
   46     0.00536253380917     0.02871462501568     0.01163532695238     0.00742093846229     0.73404131856301
   47    -0.00057569822844     0.00023985955529     0.01048117295280     0.00745884661511     0.81773111673489
   48     0.00071207110812     0.00929411036618     0.03858069087787     0.00600008826349     0.02233179494278
   49     0.00097749359260     0.01188988810013     0.00485712101742     0.00084146724124     0.02847378165227
   50     0.00023318538438     0.00260353528578     0.01051502014109     0.00788429066299    -0.00014019519220
   51    -0.00003305665992     0.00007372615598     0.00147001057363     0.00033775549896     0.00429354992812
   52     0.00006549950843     0.00064862177696     0.00092237386292    -0.00003053701662    -0.00034477993984
   53     0.00001393664496     0.00014488974658     0.00007338679810     0.00001481773110     0.00013703474803
   54    -0.00000027058368     0.00000032851345     0.00000130242856    -0.00001057203702     0.00001842649679
   55     0.00000051505343     0.00000715763149     0.00000013464766     0.00000126856438     0.00002143693021
   56     0.00000039887719     0.00000504357012     0.00000017173649     0.00000058087003     0.00000257198739
   57     0.00000002935248     0.00000038027563     0.00000000993010     0.00000004313977     0.00000022000209
   58     0.00000033023555     0.00000370439881     0.00000006553748     0.00000012968259     0.00000052600136
   59     0.00000013281451     0.00000095276825     0.00000011555238     0.00000052872400     0.00000275340604
   60     0.00000000319792     0.00000002698859     0.00000000207244    -0.00000000289581     0.00000006028352
   61    -0.00000000096043     0.00000000744197     0.00000001014324    -0.00000004029607    -0.00000021413074
   62     0.00000000374386     0.00000006845043     0.00000005210736    -0.00000038309374    -0.00000141263269
   63     0.00000003960355     0.00000051788695     0.00000003488886     0.00000016142921     0.00000133134178
   64    -0.00000000130116     0.00000001538262     0.00000003126846    -0.00000006896687    -0.00000006031855
   65     0.00000010543995     0.00000117125381     0.00000002925310     0.00000009185664     0.00000004719718
   66    -0.00000021559154    -0.00000032183829     0.00000022045936    -0.00000343111486     0.00000831381586
   67     0.00000014701118     0.00000219488894     0.00000000433744     0.00000033718992     0.00000299502743
   68     0.00000185784544     0.00002958138452     0.00000080682451     0.00001128218539     0.00012308974969
   69     0.00000008885974     0.00000137120646     0.00000010617547     0.00000052742043     0.00001515690892
   70     0.00000052830637     0.00000747501907     0.00000015085736     0.00000330675827     0.00003646982997
   71     0.00112632853412     0.02169644020985     0.00032384515031     0.00153595392440     0.00568763228923
   72     0.00002058295735     0.00005700510038     0.00001117312478     0.00001673124379     0.00012094213609
   73     0.00506209878654     0.07876917844326     0.00065055584588     0.00198640885177     0.00536261807119
   74     0.00000076831211     0.00001028637735    -0.00000431192627     0.00003458512851     0.00013445263043
   75     0.00000023311234     0.00000061814703     0.00000016087750     0.00000171743371     0.00001688356070
   76     0.00000017518681     0.00000109086468    -0.00000079141352     0.00000657348806     0.00006514493680
   77     0.00000002749759    -0.00000020379336     0.00000006032105     0.00000077954709     0.00000693414085
   78     0.00000039862878     0.00000165816835     0.00000020283405     0.00001008296871     0.00008938120854
   79     0.00000003285337     0.00000036566364     0.00000005115218     0.00000177230103     0.00001894894189
   80     0.00000126112868     0.00001466387274     0.00000007087110    -0.00000072257656     0.00002486298515
   81     0.00000624552594     0.00006846810248     0.00000073013928     0.00000022188857     0.00000759044130
   82     0.00000009359444     0.00000080849068     0.00000010824529    -0.00000036388108    -0.00000024612284
   83     0.00000024611354     0.00000282308994     0.00000006168008     0.00000003926603     0.00000089438250

                11                  12                  13                  14                  15

    1     0.00028662359484     0.00013812232737     0.00007739920520     0.00002804533426     0.00000522481866
    2     0.00060488863179     0.00032174146678     0.00015155603269     0.00006107290484     0.00001148577076
    3     0.00440440684839     0.00188477343435     0.00125055661481     0.00034472457761     0.00006454082268
    4     0.00474556562566     0.00181897224697     0.00123086806757     0.00031554174909     0.00005951462645
    5     0.01478270765981     0.00658965732382     0.00402956526482     0.00119653848825     0.00022178857263
    6     0.00212067437141     0.00052258435897     0.00034449766188     0.00020776384524     0.00002902819814
    7     0.02475184997127     0.00410918113333     0.00611136638860     0.00132047933542     0.00027046386631
    8     0.05406011502898     0.01278753603740     0.00194100250776     0.00000894349103     0.00003814771241
    9    -0.00847074008267     0.01427563747577     0.00054457385349     0.00160584274233     0.00033532062932
   10     1.17248347549661     0.00313221700121     0.00282866974083     0.02185327255481     0.00302294681424
   11     0.00000000000000     1.08450403084576     0.00688065378514     0.05467270258012     0.00447280297739
   12     1.08450403084576     0.00000000000000     0.90522164460899     0.03995301403528     0.00828564749825
   13     0.00688065378514     0.90522164460899     0.00000000000000     1.15362837422967     0.01134448602894
   14     0.05467270258012     0.03995301403528     1.15362837422967     0.00000000000000     1.28388189283562
   15     0.00447280297739     0.00828564749825     0.01134448602894     1.28388189283562     0.00000000000000
   16     0.01682891838415     0.01884638038448     0.04035630050388    -0.01475633716226     1.57882406884419
   17     0.00109167755988    -0.00011454419058     0.01457040792455    -0.01277503596346     0.92126949941719
   18     0.00010988823089     0.00007888994121     0.00081818939754     0.00256303515025    -0.00234903282140
   19    -0.00000241198546     0.00000751217901     0.00030010860998     0.00047148137218     0.00522937197287
   20     0.00006293267137     0.00003729204584     0.00007273448643     0.00009376918425     0.00251685306561
   21     0.00000455360953    -0.00000474404936     0.00016608797505    -0.00002909708626     0.00089272956053
   22     0.00000188144584     0.00000413779449     0.00001374619825     0.00004882690296    -0.00004450227947
   23     0.00000210972916    -0.00000696806778     0.00001172636940    -0.00004444946353     0.00043856839631
   24     0.00001140070157     0.00001240805319    -0.00005123191904     0.00008792655618     0.00003898352516
   25     0.00003530751275     0.00002079842658    -0.00010225675514     0.00032176961659    -0.00069144283053
   26     0.00000785608697     0.00000954787292     0.00002432622000     0.00003763803271     0.00008878444109
   27     0.00000482161226    -0.00000302449420     0.00000623230252     0.00005554394220    -0.00120960658260
   28     0.00000435181011    -0.00000077228375    -0.00000040868467     0.00000358112695     0.00011961759167
   29     0.00054107862945     0.00053387701073     0.00146105599007    -0.00184704176786    -0.04669496209151
   30     0.00035716598116     0.00055181535189     0.00094429001700     0.00134467001238     0.00924855233409
   31     0.00012779176589    -0.00003687292148    -0.00025602132774     0.00086851706523    -0.00096252261485
   32     0.01709580359075    -0.01089980791962     0.70367009666431     0.02878749061190    -0.00081139735560
   33     0.02380904781669     0.04951696661189    -0.00295616028175     0.11019723454522     0.01260976206162
   34     0.01229699143253     0.00944538185546    -0.02382641810667     0.01515126745310     0.00170405866930
   35     0.01075483984442     0.00306105803707     0.01966618123306     0.00742198654718     0.00016758443823
   36     0.00005542968411     0.00002561969803     0.00001532538886     0.00000480279007     0.00000087199361
   37     0.00000675146247     0.00000346704974     0.00000086167435     0.00000047590362     0.00000009545718
   38     0.00008225397396     0.00003389576043     0.00002554853033     0.00000631152497     0.00000105919843
   39     0.00030748010394     0.00013342442366     0.00009883895788     0.00002636042334     0.00000462127866
   40     0.00147300298848     0.00057347610354     0.00045770765202     0.00011069585607     0.00001998264622
   41     0.00006443962571     0.00001183720142     0.00001241961144     0.00000238466301     0.00000051644837
   42     0.00386996999461     0.00157998467086     0.00115854145117     0.00031245242855     0.00005637360125
   43     0.00044580244288     0.00021738773289     0.00004614210654     0.00002718142900     0.00000610852265
   44     0.00286775028773     0.01202345464665    -0.00034244014634     0.00080247944875     0.00011747316554
   45     0.01099268758383    -0.00088027975543     0.00130839653433     0.00233505491408     0.00032201943656
   46     0.02774331619261     0.00612440032225     0.00392305779849     0.01419512114735     0.00171427378572
   47     0.02394518591307     0.00478610382593     0.00159648582423     0.00321708702392     0.00028222413719
   48     0.79971732785891     0.00982257959430     0.00257695143652     0.00018599876366     0.00014076892959
   49     0.65623307785049     0.04526353951130     0.00803733874910     0.03828624813054     0.00325294384350
   50    -0.00336227853679     0.86734290658660     0.02419490655138     0.00202516460843     0.00062390111335
   51     0.02696666379842     0.75536026705633     0.04815659703323     0.02555665186779     0.00418987929205
   52     0.00605828808060     0.01637742435091     0.81079636255588     0.01563737265520     0.00187355388028
   53     0.00120999854666    -0.00051969059869     0.01333714805409     0.82858871747131     0.03413913742335
   54    -0.00007919066437     0.00003955404245     0.00007168615405     0.00208528531539     0.01991063329504
   55     0.00002488044566    -0.00002701241912     0.00011436859831     0.00074847575668     0.00455549928025
   56     0.00000394302659    -0.00000202275165     0.00000308668156    -0.00007074271331     0.00019630334829
   57     0.00000014641487     0.00000013471795     0.00000284110161     0.00000067702366     0.00003664468675
   58    -0.00000004631831    -0.00000068000813     0.00000593200958     0.00000246610162     0.00005137347367
   59     0.00000770811013     0.00000629232192    -0.00003667496628    -0.00000027349513    -0.00015085135056
   60     0.00000009432443     0.00000015526540    -0.00000078024428    -0.00001014853006     0.00006206237386
   61    -0.00000025697685    -0.00000037363154    -0.00000006086701    -0.00000093880172     0.00005891347753
   62    -0.00000336719151     0.00001331722213     0.00000277856831     0.00000549048600    -0.00075778705315
   63     0.00000316757426     0.00000181234200    -0.00000059798323     0.00003540360977     0.00002881396072
   64    -0.00000004830909     0.00000000688185    -0.00000208388218     0.00000240613627     0.00028916141014
   65    -0.00000093978864    -0.00000023956593    -0.00000460963187    -0.00000501651383     0.00014589694089
   66     0.00001714897666     0.00009278365511    -0.00084848904804    -0.00073725065316    -0.02377776801355
   67     0.00000317981182    -0.00000307067408     0.00003170245042    -0.00000855448701    -0.00048818086481
   68     0.00017793135657     0.00015417481009     0.00040252684663     0.00012933153209    -0.00131221706254
   69     0.00002665133449     0.00007497132529    -0.00006708698869    -0.00009485043876    -0.00051521472820
   70     0.00004056085800     0.00008110507164     0.00037993717184     0.00040132511596     0.00176473842613
   71     0.00287551687782     0.00135476814158     0.00508455926899     0.00180893773218     0.00010265672875
   72     0.00029101055790    -0.00005840224437     0.00056250564557     0.00040875653564     0.00001929292902
   73     0.00369109202353     0.00093676469800     0.00310060600758     0.00027887171641     0.00001650858987
   74     0.00025674052147     0.00051032313614     0.00125710879544     0.00515636794089    -0.05863798685235
   75     0.00003684100653     0.00003167258074     0.00027951500916     0.00045290071146    -0.00148028282806
   76     0.00017184762921     0.00017319585487     0.00001072379062     0.00021345732552     0.00626300971869
   77     0.00001405204878     0.00000438220054     0.00004215414459     0.00010227581985     0.00046672739139
   78     0.00020073125974     0.00020879911816     0.00027347910178     0.00020836703146     0.00130342435162
   79     0.00004302757276     0.00005050618409     0.00003651079802     0.00003794385995     0.00080688444632
   80     0.00005143194355     0.00008124315848     0.00046839443458     0.00001255464897     0.00004934169486
   81     0.00000435247969     0.00000467370462     0.00013533491870     0.00011457869337     0.00271448857064
   82    -0.00000256506473    -0.00000001394518     0.00000572517314     0.00004143641304     0.00023849667363
   83     0.00000104744816    -0.00000476018734     0.00001459243747     0.00000119186136     0.00001570910296

                16                  17                  18                  19                  20

    1     0.00000927291912     0.00000466149220     0.00000085893743     0.00000056839866     0.00000332898831
    2     0.00002185495802     0.00000935323171     0.00000165116803     0.00000109624718     0.00000645105430
    3     0.00008933686977     0.00006259878596     0.00001187812632     0.00000757017390     0.00004301481659
    4     0.00007497630749     0.00006084602996     0.00001191321181     0.00000751333832     0.00004233941765
    5     0.00034622196409     0.00020720960577     0.00003781855127     0.00002431012077     0.00013990643097
    6     0.00004500160321     0.00001514943311     0.00000291796102     0.00000142270463     0.00000808710118
    7     0.00033537646935     0.00020491706374     0.00003043030623     0.00001846651721     0.00010149655558
    8     0.00004405000787     0.00000959291579     0.00000035764082     0.00000034031912     0.00000193961445
    9     0.00068412639433     0.00007253859151     0.00000125388292     0.00000240970590     0.00001044117338
   10     0.00783759553931     0.00042653753552     0.00003986798847     0.00001049044309     0.00005880097150
   11     0.01682891838415     0.00109167755988     0.00010988823089    -0.00000241198546     0.00006293267137
   12     0.01884638038448    -0.00011454419058     0.00007888994121     0.00000751217901     0.00003729204584
   13     0.04035630050388     0.01457040792455     0.00081818939754     0.00030010860998     0.00007273448643
   14    -0.01475633716226    -0.01277503596346     0.00256303515025     0.00047148137218     0.00009376918425
   15     1.57882406884419     0.92126949941719    -0.00234903282140     0.00522937197287     0.00251685306561
   16     0.00000000000000     0.02870490372274    -0.00505186757559     0.00186877606302     0.00004607964035
   17     0.02870490372274     0.00000000000000     1.03241564087944    -0.00636646007491     0.03323405368991
   18    -0.00505186757559     1.03241564087944     0.00000000000000     0.95939458354020    -0.00901926158792
   19     0.00186877606302    -0.00636646007491     0.95939458354020     0.00000000000000     2.16071235767653
   20     0.00004607964035     0.03323405368991    -0.00901926158792     2.16071235767653     0.00000000000000
   21     0.00009833962195     0.01861795456184    -0.04150617596990     0.85364335958470     0.00193638449167
   22     0.00007654902279     0.00194544746883     0.00346577316697     0.00999321347188     0.01607282305832
   23    -0.00006675921695     0.00061751559770     0.00468002730694    -0.01703186182046     0.00079745382831
   24     0.00102447285247     0.00044923474193    -0.00061243564909     0.00288424963408    -0.00044104310840
   25     0.00532982175290     0.00048360654816     0.00252245319998    -0.00051595682504     0.00127049354359
   26     0.00060558787684     0.00008816963153     0.00035362156045    -0.00055996475162     0.00060440809371
   27    -0.00020122127871     0.00304440196738     0.01925983300387    -0.00343969329391     0.06467230404535
   28    -0.00024803800173     0.00134523556847     0.00477530496208     0.00812587560262     0.01919444597537
   29    -0.00771056032326     0.96237064128251    -0.02513088033763     0.00821271267590    -0.00208810446400
   30     0.00249987600005    -0.08274350485598     0.01023893299582     0.00755417492381     0.00372593064776
   31     0.00394534523545    -0.02743816102085     0.00866530886531     0.00378437146084     0.00156216297210
   32     0.00669028917419     0.00136561941259     0.00007823435890     0.00005846157109     0.00003193622088
   33     0.03426672230571     0.00107846763401     0.00042975013853     0.00006999169174     0.00013595801784
   34     0.00417914344317     0.00019867531581     0.00007303473331     0.00004340332428     0.00022235505201
   35     0.00178190326409     0.00015168574825     0.00005340088174     0.00002954834396     0.00014179947352
   36     0.00000135118042     0.00000081699748     0.00000014960131     0.00000009585996     0.00000055111760
   37     0.00000020349446     0.00000006634070     0.00000001035611     0.00000000694271     0.00000004317293
   38     0.00000121859475     0.00000125130811     0.00000026258886     0.00000015901062     0.00000089609113
   39     0.00000631866347     0.00000464037884     0.00000090552604     0.00000057226939     0.00000331636299
   40     0.00002399259818     0.00002154229640     0.00000430134281     0.00000267928531     0.00001509063034
   41     0.00000036672381     0.00000060168366     0.00000011973489     0.00000006865924     0.00000037469613
   42     0.00007738497834     0.00005720730163     0.00001093698205     0.00000691503056     0.00003894560775
   43     0.00001149870110     0.00000299603371     0.00000017067294     0.00000006317616     0.00000051748422
   44     0.00036909593924     0.00001907000221     0.00000276758988     0.00000091195836     0.00000609754481
   45     0.00083635530964     0.00006721791113     0.00000365510552     0.00000154305903     0.00000850962460
   46     0.00520656290702     0.00031265708808     0.00002032756789     0.00000552057565     0.00003460975148
   47     0.00109642567006     0.00005605152405     0.00000626196944     0.00000178815267     0.00001231305879
   48     0.00009683312248    -0.00009454428929     0.00000288858394    -0.00000038004699     0.00000074931726
   49     0.01263717726038     0.00039802855736     0.00007533852023     0.00001038656414     0.00003910405725
   50     0.00114051552787     0.00004251980137     0.00001021792583    -0.00000326404942     0.00000214203979
   51     0.00953227130512     0.00024678211517     0.00003613286203     0.00000261218939     0.00000788393166
   52     0.00215807211354     0.00202269810441    -0.00001290702530    -0.00001415324016    -0.00000478445912
   53     0.00408170764121    -0.00174007254041    -0.00012675201509     0.00005103801797     0.00000576941382
   54     0.00347345872580     0.90518420493752     0.00655949450506     0.00019853288960     0.00240060537786
   55     0.00241994071556     0.00319349451708     0.85492427042084     0.02000711289603     0.01254217074894
   56     0.00019902292282     0.00068354136109     0.01260185132202     0.00569474674184     0.01201039125251
   57     0.00002360194749     0.00000523366929     0.00082087538597    -0.00044396289252     0.00789441969448
   58     0.00002023087991     0.00048951932971    -0.00000547724743     0.00874672500032     0.00176941324325
   59     0.00019144862043     0.00086414982620    -0.00146152652937    -0.01080864408075     0.00218263182314
   60    -0.00000350256490    -0.00028585443747     0.00027141049097    -0.00084267076381    -0.00017204173405
   61    -0.00002200604348     0.00001929627128    -0.00001751209248    -0.00008228081232     0.00013076921115
   62    -0.00000450544036     0.00074854710715     0.00601882326548    -0.00126123874160     0.00117553404028
   63     0.00018791541011     0.00035754480826     0.00238688128366     0.00227402533023     0.01190936977132
   64     0.00012631054105    -0.00014503045727     0.00193939428277     0.00005513751890     0.00444666489460
   65     0.00066819278410     0.00006616867821     0.00004905555546     0.00317808964099     0.00174103869885
   66    -0.00239507990435     0.14617964914873     0.00155641531170    -0.00024367401764     0.00025478406668
   67    -0.00015707486915    -0.00786902848982    -0.00006249478933     0.00252297916286     0.00911707745259
   68     0.00114327107369     0.01394815121784    -0.00238757132265     0.00083045995525     0.00085146002726
   69    -0.00015866441227    -0.01257502384404     0.00053218083264     0.00009493021543     0.00011642293889
   70     0.00034853508429    -0.00205168381149     0.00886945388039     0.00142358637552     0.00104598263425
   71     0.00050628511414     0.00002692059976     0.00002485217225     0.00001417698747     0.00007911955991
   72     0.00011052818877     0.00001116090625     0.00000094976382     0.00000046640455     0.00000108487053
   73     0.00017041102166    -0.00000104643293     0.00001899233167     0.00001137960623     0.00006231148798
   74     0.36089738581921     0.00706570607555     0.32260554236280    -0.05327843227035     0.02231335974806
   75    -0.00031782192158     0.00587727537254     0.00397369789157    -0.00378204936358     0.00079577984386
   76     0.02400076833155    -0.00101475521928     0.00171872930781    -0.00009021996919     0.00056581324282
   77     0.00290751787350     0.00100924518076    -0.00007940756607    -0.00028718096489     0.00007579722648
   78    -0.00473526000802    -0.00293025017958    -0.01013635552819    -0.00069578612211     0.00713913658174
   79     0.00004436928034    -0.00009337062734    -0.00000163844554     0.00003483543285     0.00002200023948
   80    -0.00085476190560     0.00068902570042    -0.00084307555141    -0.00000930461008    -0.00040639648974
   81     0.00305387304869     0.01014463570129     0.05286089525702     0.01844445350502     0.14172652866620
   82    -0.00010193097695     0.00007030814141     0.00054627982944     0.00040316954774     0.00140489475052
   83     0.00037432471838     0.00004975526475     0.00313788485638     0.00151001013866     0.00511800949163

                21                  22                  23                  24                  25

    1     0.00000114950886     0.00000013164606     0.00000009520540     0.00000001361104     0.00000001959480
    2     0.00000219641318     0.00000024326743     0.00000019052125     0.00000002493457     0.00000003831431
    3     0.00001545204335     0.00000180096145     0.00000118447170     0.00000013663916     0.00000013459184
    4     0.00001538359125     0.00000182867389     0.00000117933339     0.00000010385947     0.00000010058047
    5     0.00004912719886     0.00000562693394     0.00000393625726     0.00000046127201     0.00000059595162
    6     0.00000275739897     0.00000037954171     0.00000020148545     0.00000007999677     0.00000021123022
    7     0.00003360513508     0.00000387431481     0.00000271823172     0.00000037853666     0.00000039969944
    8     0.00000061788481     0.00000007286931    -0.00000000649470     0.00000022828436     0.00000003188416
    9     0.00000213731779    -0.00000010222113     0.00000065299110     0.00000045920407     0.00000468694822
   10     0.00000921269335     0.00000035511337     0.00000357836000     0.00000907199615     0.00003066284812
   11     0.00000455360953     0.00000188144584     0.00000210972916     0.00001140070157     0.00003530751275
   12    -0.00000474404936     0.00000413779449    -0.00000696806778     0.00001240805319     0.00002079842658
   13     0.00016608797505     0.00001374619825     0.00001172636940    -0.00005123191904    -0.00010225675514
   14    -0.00002909708626     0.00004882690296    -0.00004444946353     0.00008792655618     0.00032176961659
   15     0.00089272956053    -0.00004450227947     0.00043856839631     0.00003898352516    -0.00069144283053
   16     0.00009833962195     0.00007654902279    -0.00006675921695     0.00102447285247     0.00532982175290
   17     0.01861795456184     0.00194544746883     0.00061751559770     0.00044923474193     0.00048360654816
   18    -0.04150617596990     0.00346577316697     0.00468002730694    -0.00061243564909     0.00252245319998
   19     0.85364335958470     0.00999321347188    -0.01703186182046     0.00288424963408    -0.00051595682504
   20     0.00193638449167     0.01607282305832     0.00079745382831    -0.00044104310840     0.00127049354359
   21     0.00000000000000     1.04646215482025     0.02420647046134    -0.00242626286252    -0.00444423583053
   22     1.04646215482025     0.00000000000000     1.02967236547668     0.01822196801016     0.00388186316667
   23     0.02420647046134     1.02967236547668     0.00000000000000     1.09482254106888     0.01350961480529
   24    -0.00242626286252     0.01822196801016     1.09482254106888     0.00000000000000     0.29983870233063
   25    -0.00444423583053     0.00388186316667     0.01350961480529     0.29983870233063     0.00000000000000
   26     0.00240599583169     0.01112402049603    -0.01577442531183     1.87492436017918     0.00152984923682
   27     1.00442497300377    -0.02580087478467     0.00745145006078     0.00065431954081    -0.00729922629299
   28    -0.00380658543041     0.02844417097623    -0.00873157092500     0.01913525404466    -0.00413375053506
   29    -0.00299041456565    -0.00043744112091    -0.01097718640950     0.00132905436891     0.00488099077424
   30     0.00112943592966     0.00094947403983    -0.00942222325928    -0.00115027523289     0.00006061450617
   31    -0.00275069700896     0.00078658494781    -0.00135567939966     0.00640942049828     0.03547799192627
   32    -0.00000109064382     0.00000505978701    -0.00000019336560     0.00002260094009     0.00000043449868
   33     0.00013637834129     0.00003687790965     0.00000143291245     0.00002338910279     0.00004790756444
   34     0.00006586671916     0.00001641510840     0.00000200258822     0.00000937608268     0.00000734328801
   35     0.00006102339161     0.00001202679012     0.00000382271478     0.00000160117074     0.00000735991802
   36     0.00000019437886     0.00000002219981     0.00000001538499     0.00000000198207     0.00000000226935
   37     0.00000001409433     0.00000000128304     0.00000000164873    -0.00000000013285     0.00000000009620
   38     0.00000032660869     0.00000004022759     0.00000002508723     0.00000000059110     0.00000000114389
   39     0.00000118553891     0.00000014018244     0.00000009057711     0.00000001118765     0.00000000615958
   40     0.00000550104850     0.00000066108841     0.00000041545075     0.00000002901594     0.00000002846385
   41     0.00000013587723     0.00000001767705     0.00000001010061     0.00000000023300     0.00000000012613
   42     0.00001402470856     0.00000164477047     0.00000106503990     0.00000010225300     0.00000008246901
   43     0.00000010369992     0.00000000026465     0.00000001762015     0.00000000798959    -0.00000000313124
   44     0.00000108418622    -0.00000003613744     0.00000022261232     0.00000020241538     0.00000094539557
   45     0.00000144354050    -0.00000006123454     0.00000032017415     0.00000093007456     0.00000044559266
   46     0.00000599594154     0.00000001803778     0.00000038233136     0.00000592687542     0.00000517496848
   47     0.00000226361588    -0.00000005357524     0.00000032276318     0.00000089451249     0.00000057815691
   48     0.00000112374313     0.00000005636523    -0.00000005091510     0.00000017355286     0.00000189706530
   49     0.00000367915882     0.00000143711725     0.00000230514950     0.00001277909348     0.00002867083274
   50     0.00000587279702     0.00000015806391     0.00000050224312    -0.00000187849383     0.00000088071080
   51     0.00000708072540     0.00000159409230     0.00000000325315     0.00000877542353     0.00001517913623
   52    -0.00003285542456    -0.00000132376932     0.00001545011341     0.00015674214854     0.00027128452311
   53     0.00000131816131     0.00000638482032    -0.00000503869123     0.00001515877972     0.00000488203096
   54     0.00151821401149    -0.00016370013816     0.00016415306564     0.00005941691803    -0.00050917755383
   55    -0.00241224334271     0.00049867352252     0.00010642675170     0.00008750851873     0.00060903168599
   56     0.77907537346237     0.02800884501843     0.00129933170294     0.00088651497756     0.00008316311641
   57     0.02181999241693     0.88426419875176     0.00760444746549     0.00630516770029     0.00094425702757
   58     0.00241072296715     0.91828444313145    -0.01917057839411     0.00129682771699    -0.00032600564341
   59    -0.00052211585354    -0.00307230252792     0.72201598183810     0.01229599286137    -0.01249189416119
   60     0.00563548444768     0.03554651520319     0.84143261330930     0.04792015895815     0.00033964585807
   61     0.00004620783917    -0.00009437188921     0.00705776044502     0.03504403677879     0.00745140816271
   62     0.01490912659218     0.00826351936613     0.00093607234559     0.00072990013588    -0.00394616784925
   63     0.00850797899270    -0.00185872402098     0.00030069644844     0.00049184985069     0.00070557259143
   64    -0.00755677382558     0.01899001040750    -0.00382205361910     0.01695573334631     0.00513577607014
   65     0.00924833548955     0.00211667848615    -0.00008217312886     0.00071340748951    -0.00087071052856
   66     0.00004674701797     0.00007195378959     0.00154597409808    -0.00000829102754     0.00002859075351
   67     0.00057122952217    -0.00035174387539     0.00793089672637    -0.00001734718429    -0.00106363211180
   68     0.00029306838581    -0.00010425533682    -0.00026571818999     0.00014646860704    -0.00010162494930
   69     0.00003502954699     0.00006026540431    -0.00065189806604    -0.00020959572360     0.00054672835407
   70    -0.00016504010082     0.00017371620030     0.00563754520751     0.00653797703074     0.01146953475390
   71     0.00003163300611     0.00000655261425     0.00000237765124     0.00000161867593     0.00000183502660
   72     0.00000036436627     0.00000006360065     0.00000007906760     0.00000069149412     0.00000074014505
   73     0.00002854928660     0.00000524117660     0.00000016586382     0.00000112429012     0.00000123348103
   74     0.01688355978116     0.00301827550053     0.09205587496913    -0.03319393298407     0.51120096066735
   75     0.00127856815226     0.00035108067041    -0.00593522514464     0.01675486100207     0.07048296662021
   76    -0.00003664506215     0.00023721360178    -0.00307488018061     0.00094160380847    -0.00862945281198
   77     0.00018030527841     0.00009695039444    -0.00242538704811     0.00004480574320    -0.01462044548284
   78     0.00395995082824     0.00109901955189     0.00097510654162     0.00347713568052     0.00859235632050
   79    -0.00005885422819    -0.00000829961723     0.00005402406080     0.00049085215611     0.00037661726813
   80    -0.00020184315869     0.00003763002314     0.00001224195018    -0.00098656794885    -0.00096615589974
   81     0.06018525392327     0.00538354291403     0.01553770112644     0.00195060071278    -0.00698465072116
   82     0.00032624505971    -0.00006439971190     0.00154435240615    -0.00185550210357    -0.01594658386647
   83     0.00194236965960     0.00019176298926     0.00110445951030    -0.00116976171549    -0.00028352984379

                26                  27                  28                  29                  30

    1     0.00000001990200     0.00000014701905     0.00000006313334     0.00000133820185     0.00000160832688
    2     0.00000003901658     0.00000029332565     0.00000012431853     0.00000285838263     0.00000334538910
    3     0.00000024717309     0.00000178042026     0.00000077699827     0.00001572492968     0.00001889510355
    4     0.00000024420088     0.00000175008513     0.00000075125497     0.00001425521047     0.00001786114040
    5     0.00000080435163     0.00000590540391     0.00000255974592     0.00005485486188     0.00006566355130
    6     0.00000006293679     0.00000029779494     0.00000013406656     0.00000391932311     0.00000353510046
    7     0.00000042223144     0.00000364707234     0.00000187138767     0.00005760406782     0.00006012048573
    8     0.00000009964715     0.00000019924419     0.00000005519948     0.00000019339791     0.00000122937899
    9     0.00000021674506     0.00000020058723     0.00000032936679     0.00004731250171     0.00002724212623
   10     0.00000416080459     0.00000235355524     0.00000190400799     0.00035880287040     0.00024738257290
   11     0.00000785608697     0.00000482161226     0.00000435181011     0.00054107862945     0.00035716598116
   12     0.00000954787292    -0.00000302449420    -0.00000077228375     0.00053387701073     0.00055181535189
   13     0.00002432622000     0.00000623230252    -0.00000040868467     0.00146105599007     0.00094429001700
   14     0.00003763803271     0.00005554394220     0.00000358112695    -0.00184704176786     0.00134467001238
   15     0.00008878444109    -0.00120960658260     0.00011961759167    -0.04669496209151     0.00924855233409
   16     0.00060558787684    -0.00020122127871    -0.00024803800173    -0.00771056032326     0.00249987600005
   17     0.00008816963153     0.00304440196738     0.00134523556847     0.96237064128251    -0.08274350485598
   18     0.00035362156045     0.01925983300387     0.00477530496208    -0.02513088033763     0.01023893299582
   19    -0.00055996475162    -0.00343969329391     0.00812587560262     0.00821271267590     0.00755417492381
   20     0.00060440809371     0.06467230404535     0.01919444597537    -0.00208810446400     0.00372593064776
   21     0.00240599583169     1.00442497300377    -0.00380658543041    -0.00299041456565     0.00112943592966
   22     0.01112402049603    -0.02580087478467     0.02844417097623    -0.00043744112091     0.00094947403983
   23    -0.01577442531183     0.00745145006078    -0.00873157092500    -0.01097718640950    -0.00942222325928
   24     1.87492436017918     0.00065431954081     0.01913525404466     0.00132905436891    -0.00115027523289
   25     0.00152984923682    -0.00729922629299    -0.00413375053506     0.00488099077424     0.00006061450617
   26     0.00000000000000     0.00029685476524     0.00208116249285    -0.00006486482402     0.00046774522560
   27     0.00029685476524     0.00000000000000     0.89834022233743    -0.00160998121789     0.00300823269132
   28     0.00208116249285     0.89834022233743     0.00000000000000    -0.00007469446433     0.00046539461149
   29    -0.00006486482402    -0.00160998121789    -0.00007469446433     0.00000000000000     0.54363374004526
   30     0.00046774522560     0.00300823269132     0.00046539461149     0.54363374004526     0.00000000000000
   31     0.00059607297305    -0.00098108064269    -0.00011104199846     0.14645297415713     0.13846611819307
   32     0.00000539567188     0.00000330448290     0.00000141054406    -0.00029524449786     0.00015952734469
   33     0.00002174837696     0.00000360234762     0.00000032569403     0.00084405055043     0.00050229439964
   34     0.00000433364552     0.00000998562892     0.00000367397228     0.00009763447461     0.00008956736534
   35     0.00000302606486     0.00000482928480     0.00000160937216     0.00005833687597     0.00008841668363
   36     0.00000000320138     0.00000002335352     0.00000001013674     0.00000021662624     0.00000025552197
   37     0.00000000028138     0.00000000222350     0.00000000094067     0.00000002315954     0.00000002784511
   38     0.00000000489302     0.00000003597733     0.00000001560448     0.00000025888611     0.00000035228117
   39     0.00000001857445     0.00000013930415     0.00000005874034     0.00000115800759     0.00000141923653
   40     0.00000008383827     0.00000061079496     0.00000026556566     0.00000494774436     0.00000620912805
   41     0.00000000186607     0.00000001358854     0.00000000612020     0.00000011963291     0.00000014833988
   42     0.00000021736929     0.00000160494394     0.00000069510033     0.00001415082771     0.00001707089427
   43     0.00000000674628     0.00000001552657     0.00000001114830     0.00000095727279     0.00000076116216
   44     0.00000020283066     0.00000031607429     0.00000023577788     0.00001049156011     0.00001236750021
   45     0.00000055830710     0.00000044167642     0.00000025350421     0.00004847279466     0.00003402524484
   46     0.00000331800826     0.00000289443920     0.00000146120409     0.00023351404607     0.00018695393113
   47     0.00000058300993     0.00000074080216     0.00000040941749     0.00004844672157     0.00004142104720
   48     0.00000027788860    -0.00000029083280     0.00000009100288     0.00000263076271     0.00000174166493
   49     0.00000742538031     0.00000242894868     0.00000191154383     0.00044168417966     0.00038921019718
   50     0.00000032999916     0.00000075307559    -0.00000025115311     0.00012799992030     0.00001028671432
   51     0.00000629258118    -0.00000245205751     0.00000206697089     0.00041711843486     0.00024814766834
   52    -0.00000381548020     0.00002683910966    -0.00000294761906    -0.00004980560774    -0.00000257228835
   53     0.00000948322339     0.00000615586559     0.00000570761797    -0.00008702810905     0.00008253290060
   54     0.00004520352914     0.00011488537727     0.00018746767668    -0.01839849581141     0.01171442843980
   55     0.00005540089041     0.00558197308422     0.00106545700216     0.00583880307677    -0.00080005101688
   56     0.00024738432825    -0.00159825249226     0.00577163110830     0.00111531999854    -0.00002593437939
   57     0.00098963764708     0.00423127374550     0.00059888537157     0.00008421989470    -0.00007154015462
   58     0.00375836628962    -0.00031468039341     0.00649465326689    -0.00014902269198     0.00019294234761
   59     0.01025566639347    -0.00012422293174     0.00019695219421     0.02240038731210     0.06341573193830
   60     0.00925546117354     0.00154752246659     0.00015272386787     0.00024305243279     0.00006936565314
   61     0.83110039144195    -0.00010422508541    -0.00007409409837    -0.00002215655576     0.00003603481732
   62     0.00023834737391     0.84587159367612    -0.00465469156903    -0.00073795889991     0.00012472207336
   63     0.00013074303658     0.00414490610513     0.82145599103754     0.00010181178327     0.00031173889500
   64     0.00764618816103    -0.00330294518377     0.91419923766111     0.00015043771696     0.00024997773425
   65     0.00027557627118    -0.00482337032874     0.94280270729631     0.00030406658277     0.00016962789082
   66     0.00009501876564     0.00048936074489     0.00010708263060     0.66227636601263    -0.01024275787600
   67    -0.00034399279452     0.00011311444226    -0.00001564958922     0.05152258256248     0.88404544996845
   68    -0.00003389974392    -0.00015375609093     0.00006377585835     0.31593578085325     0.65462698355650
   69     0.00003784128134     0.00049484251171     0.00014330804058     0.07497779286981     0.84834317175397
   70     0.00032341487794     0.00031642247967    -0.00077489888769     0.18784328285124    -0.01498783118332
   71     0.00000108824168     0.00000358070029     0.00000093749097     0.00000034278442     0.00000055002179
   72     0.00000003913346     0.00000009660653    -0.00000006385185     0.00000349745517     0.00000259184258
   73     0.00000073113246     0.00000176947623     0.00000105908390    -0.00000184092527     0.00000368527014
   74    -0.02657004687559     0.20379035769922     0.03546876761447     0.09108754512394     0.00973871404992
   75     0.00545406045507     0.00029954942265     0.00028121705250    -0.00561679988865     0.00094102405006
   76     0.00054757635083    -0.00091353665664     0.00016315181303     0.00294899145933     0.00040609944729
   77     0.00160393699614    -0.00160051368120     0.00032013183698    -0.00116447404222     0.00052565239423
   78     0.00172498235639     0.00365296279494     0.00273124695463    -0.00003339842708     0.00263381089656
   79     0.00003104649142    -0.00037215368799    -0.00020973323494    -0.00010293453261     0.00017002614413
   80     0.00005475671939    -0.00013170597488    -0.00043576567743     0.00023075073618    -0.00001311307772
   81     0.00483319509120     0.25201220283466     0.05997597411932     0.00173270155332     0.00762192758926
   82     0.00087911071052     0.00076237632865     0.00196252071363    -0.00008576199543     0.00000723757628
   83     0.00029785797938     0.00893744465702     0.00250761679841     0.00073692512462     0.00014530905787

                31                  32                  33                  34                  35

    1     0.00000006489547     0.00005376265406     0.00061856398957     0.00152446858149     0.00087432099491
    2     0.00000013969074     0.00010271543889     0.00126708164847     0.00303615655026     0.00182884812196
    3     0.00000057242092     0.00089153582144     0.00982676072509     0.02394124247694     0.01395714353318
    4     0.00000063405578     0.00091395969675     0.01008176695498     0.02407237096335     0.01428822212571
    5     0.00000227095591     0.00289631890064     0.03034590150907     0.07473918148804     0.04048247246667
    6     0.00000031040528     0.00082145752431     0.00175725546154     0.00414237954668     0.00149253661285
    7     0.00000200754111     0.00906226516904     0.02342148858059     0.07486384189074     0.03680757617122
    8    -0.00000004818997     0.00072117338713     0.00015826263411     0.00152948067200     0.00071401316061
    9     0.00000323029511     0.00514182253640     0.00404053675548     0.00424312097324     0.00332329077346
   10     0.00003124562035     0.03867968589104     0.01029813547266     0.00860677323695     0.01240455653165
   11     0.00012779176589     0.01709580359075     0.02380904781669     0.01229699143253     0.01075483984442
   12    -0.00003687292148    -0.01089980791962     0.04951696661189     0.00944538185546     0.00306105803707
   13    -0.00025602132774     0.70367009666431    -0.00295616028175    -0.02382641810667     0.01966618123306
   14     0.00086851706523     0.02878749061190     0.11019723454522     0.01515126745310     0.00742198654718
   15    -0.00096252261485    -0.00081139735560     0.01260976206162     0.00170405866930     0.00016758443823
   16     0.00394534523545     0.00669028917419     0.03426672230571     0.00417914344317     0.00178190326409
   17    -0.02743816102085     0.00136561941259     0.00107846763401     0.00019867531581     0.00015168574825
   18     0.00866530886531     0.00007823435890     0.00042975013853     0.00007303473331     0.00005340088174
   19     0.00378437146084     0.00005846157109     0.00006999169174     0.00004340332428     0.00002954834396
   20     0.00156216297210     0.00003193622088     0.00013595801784     0.00022235505201     0.00014179947352
   21    -0.00275069700896    -0.00000109064382     0.00013637834129     0.00006586671916     0.00006102339161
   22     0.00078658494781     0.00000505978701     0.00003687790965     0.00001641510840     0.00001202679012
   23    -0.00135567939966    -0.00000019336560     0.00000143291245     0.00000200258822     0.00000382271478
   24     0.00640942049828     0.00002260094009     0.00002338910279     0.00000937608268     0.00000160117074
   25     0.03547799192627     0.00000043449868     0.00004790756444     0.00000734328801     0.00000735991802
   26     0.00059607297305     0.00000539567188     0.00002174837696     0.00000433364552     0.00000302606486
   27    -0.00098108064269     0.00000330448290     0.00000360234762     0.00000998562892     0.00000482928480
   28    -0.00011104199846     0.00000141054406     0.00000032569403     0.00000367397228     0.00000160937216
   29     0.14645297415713    -0.00029524449786     0.00084405055043     0.00009763447461     0.00005833687597
   30     0.13846611819307     0.00015952734469     0.00050229439964     0.00008956736534     0.00008841668363
   31     0.00000000000000     0.00014678478944     0.00010967262563     0.00001700044193     0.00000128699154
   32     0.00014678478944     0.00000000000000     2.04020582664247     1.19924890376927     0.04286372775798
   33     0.00010967262563     2.04020582664247     0.00000000000000     0.02447427735446     0.05146291506642
   34     0.00001700044193     1.19924890376927     0.02447427735446     0.00000000000000     0.94225998727224
   35     0.00000128699154     0.04286372775798     0.05146291506642     0.94225998727224     0.00000000000000
   36     0.00000000519348     0.00001065137681     0.00011909620219     0.00028584725356     0.00016563118768
   37     0.00000000174864     0.00000090737755     0.00001051057128     0.00002155388371     0.00001281382456
   38     0.00000001726725     0.00001980530683     0.00021353236099     0.00048929757555     0.00028724796456
   39     0.00000004077038     0.00007451029743     0.00074576841450     0.00184958555403     0.00106001163236
   40     0.00000020049614     0.00032483359024     0.00357168277075     0.00853913798671     0.00483820119510
   41     0.00000000435072     0.00001187823924     0.00009576812571     0.00023321224514     0.00015981061858
   42     0.00000036217516     0.00082206662960     0.00927815580973     0.02172786601509     0.01275279891365
   43     0.00000009457064     0.00011414177670     0.00001872286969     0.00024148723589     0.00020025089820
   44     0.00000542163848     0.00184283492808     0.00720194891061     0.00165955641072     0.00090232325621
   45     0.00000110346830     0.00088546753824     0.00077867738862     0.00241056167736     0.00255204865645
   46     0.00001902917631     0.02222363339080     0.00549026998770     0.00914645265741     0.00723436748403
   47     0.00000687436113     0.00261863978520     0.00199212155646     0.00238215249736     0.00229389851032
   48    -0.00000067864455    -0.00038044896498     0.00047013606846     0.00049199229587     0.00033458632301
   49     0.00005090470956     0.01228200931411     0.01427039221140     0.00786233497564     0.00628779902229
   50     0.00000143068506    -0.00572256303284     0.00324298416212     0.00103373279531     0.00102167767597
   51     0.00009694609612    -0.00072557950427     0.01242275214215     0.00240876050106     0.00074440554829
   52     0.00016015154657     0.01786810991608     0.00102357152962     0.00324469216594     0.00240719171106
   53     0.00004263444824    -0.00101049284096     0.00374190181464     0.00014047115445     0.00017980407585
   54     0.00308234802958    -0.00000721530698     0.00000959625614     0.00000433019599    -0.00000474894351
   55    -0.00566729117484     0.00004069694769     0.00004687610607    -0.00000487644286     0.00000881340337
   56    -0.00013084712614     0.00000563055616     0.00000692548778     0.00000918281234     0.00000849650662
   57    -0.00008873020945     0.00000035893732     0.00000072442456     0.00000101982849     0.00000064687054
   58     0.00024376164613     0.00000276385631     0.00001369294018     0.00000898510310     0.00000631021631
   59     0.04176402263932     0.00000121435988     0.00000649877270     0.00000591710886     0.00000134557948
   60     0.00027552460533     0.00000076039897     0.00000110399159     0.00000026371022     0.00000021174663
   61    -0.00002742764092     0.00000156603414    -0.00000039537310     0.00000025456910     0.00000010776421
   62    -0.00050809347696     0.00000242727715    -0.00000105578080    -0.00000078415292    -0.00000028335540
   63    -0.00019007548080     0.00000635184878     0.00000021227187     0.00000059429670     0.00000056221135
   64     0.00036309869823     0.00000390896480    -0.00000083371630    -0.00000035703229     0.00000017935135
   65     0.00070061240941     0.00000228236422     0.00000388225335     0.00000337464576     0.00000301264986
   66     0.01237988760687     0.00032417016955     0.00003291687438     0.00001357343258    -0.00001143259980
   67    -0.00795833976121     0.00000840750247     0.00000262715366     0.00000271437134     0.00000246602322
   68    -0.03876918290852     0.00015705696214     0.00020988634279     0.00004582917998     0.00003231681738
   69    -0.01306204737369     0.00003698389997     0.00007050163670     0.00000794134628     0.00000511552014
   70     0.66267710815370    -0.00002095196469     0.00010871123872     0.00002371275361     0.00002419641167
   71     0.00000397816350     0.00972576558800     0.02122886651365     0.03769194570655     0.71349699666679
   72     0.00000167992661     0.00854143887363     0.00175598843016     0.00515362768113     0.92795322886927
   73    -0.00000075972474     0.00940255884261     0.01563190167484     0.03228410274597     0.75739054487762
   74    -0.04158553717835    -0.00082517228303    -0.00005594943648    -0.00041422465993    -0.00019838886906
   75     0.02184944406121    -0.00000406491475     0.00005898000407     0.00001298107507     0.00000465925697
   76     0.00376639046408     0.00005688831832     0.00043865944863     0.00001472798022     0.00002450966408
   77     0.00171513596425    -0.00000347584535     0.00002415402873     0.00000259394919     0.00000247160281
   78     0.00072005601694     0.00016072306394     0.00039856433858     0.00005782795362     0.00003804699679
   79    -0.00032330756102     0.00002751307636     0.00008801446560    -0.00000259299081     0.00000650677400
   80     0.00012118323069     0.00013073723008     0.00021847169431     0.00091667210934     0.00003333950729
   81     0.00537351641169     0.00001116543697     0.00027268509500     0.00026043819124     0.00015283647061
   82    -0.00198842902455     0.00000849688511    -0.00000062293388     0.00000290184893     0.00000148350837
   83     0.00034751739965     0.00000477797136     0.00000397110879     0.00000951450122     0.00000598938940

                36                  37                  38                  39                  40

    1     0.90250238746876     0.90573741025955     0.00098782027999     0.01553898309864     0.00063414011960
    2     0.01001180563272     0.00819169014741     0.89601501794568     0.10680157124841     0.00807671056858
    3     0.00733894914374     0.00061341208316     0.00339963745196     0.74155605870453     0.85973455661072
    4     0.00104542289861    -0.00023169905966     0.00038055566956     0.02770537544484     0.00525253807483
    5     0.00025653652272     0.00001063420184     0.00028799828397     0.00050176553109     0.00911660574004
    6    -0.00002301211155    -0.00000486371365     0.00008941911362     0.00088756640402     0.00024616213903
    7     0.00003158560972     0.00002111328044     0.00006978567859     0.00510901918374     0.00123465945613
    8     0.00018497223013     0.00001216053831     0.00015017137640     0.00082071525605     0.00395951487359
    9     0.00007030118024     0.00001394649707     0.00006427529546     0.00031835934291     0.00117734828011
   10     0.00009923688572     0.00001495922827     0.00013648892289     0.00042047569126     0.00225204992096
   11     0.00005542968411     0.00000675146247     0.00008225397396     0.00030748010394     0.00147300298848
   12     0.00002561969803     0.00000346704974     0.00003389576043     0.00013342442366     0.00057347610354
   13     0.00001532538886     0.00000086167435     0.00002554853033     0.00009883895788     0.00045770765202
   14     0.00000480279007     0.00000047590362     0.00000631152497     0.00002636042334     0.00011069585607
   15     0.00000087199361     0.00000009545718     0.00000105919843     0.00000462127866     0.00001998264622
   16     0.00000135118042     0.00000020349446     0.00000121859475     0.00000631866347     0.00002399259818
   17     0.00000081699748     0.00000006634070     0.00000125130811     0.00000464037884     0.00002154229640
   18     0.00000014960131     0.00000001035611     0.00000026258886     0.00000090552604     0.00000430134281
   19     0.00000009585996     0.00000000694271     0.00000015901062     0.00000057226939     0.00000267928531
   20     0.00000055111760     0.00000004317293     0.00000089609113     0.00000331636299     0.00001509063034
   21     0.00000019437886     0.00000001409433     0.00000032660869     0.00000118553891     0.00000550104850
   22     0.00000002219981     0.00000000128304     0.00000004022759     0.00000014018244     0.00000066108841
   23     0.00000001538499     0.00000000164873     0.00000002508723     0.00000009057711     0.00000041545075
   24     0.00000000198207    -0.00000000013285     0.00000000059110     0.00000001118765     0.00000002901594
   25     0.00000000226935     0.00000000009620     0.00000000114389     0.00000000615958     0.00000002846385
   26     0.00000000320138     0.00000000028138     0.00000000489302     0.00000001857445     0.00000008383827
   27     0.00000002335352     0.00000000222350     0.00000003597733     0.00000013930415     0.00000061079496
   28     0.00000001013674     0.00000000094067     0.00000001560448     0.00000005874034     0.00000026556566
   29     0.00000021662624     0.00000002315954     0.00000025888611     0.00000115800759     0.00000494774436
   30     0.00000025552197     0.00000002784511     0.00000035228117     0.00000141923653     0.00000620912805
   31     0.00000000519348     0.00000000174864     0.00000001726725     0.00000004077038     0.00000020049614
   32     0.00001065137681     0.00000090737755     0.00001980530683     0.00007451029743     0.00032483359024
   33     0.00011909620219     0.00001051057128     0.00021353236099     0.00074576841450     0.00357168277075
   34     0.00028584725356     0.00002155388371     0.00048929757555     0.00184958555403     0.00853913798671
   35     0.00016563118768     0.00001281382456     0.00028724796456     0.00106001163236     0.00483820119510
   36     0.00000000000000     0.00016643470924     0.00284351159120     0.00061431411323     0.00035545438508
   37     0.00016643470924     0.00000000000000     0.01407619957888     0.00031509542181     0.00337665328191
   38     0.00284351159120     0.01407619957888     0.00000000000000    -0.00070232864347     0.00798821008053
   39     0.00061431411323     0.00031509542181    -0.00070232864347     0.00000000000000     0.00417517784022
   40     0.00035545438508     0.00337665328191     0.00798821008053     0.00417517784022     0.00000000000000
   41     0.00015595184621     0.00025608931012    -0.00027232720214     0.00342814821014    -0.00091718663757
   42    -0.00004652315763    -0.00006368430468     0.00136335564403    -0.00112740330003     0.00270656358039
   43     0.00000125463653    -0.00000032499098    -0.00000036645437    -0.00003232319302     0.00003887854010
   44     0.00004159059750     0.00000652790933     0.00004511826620     0.00014514702877     0.00093324257756
   45     0.00000005516244     0.00000017997529     0.00000276999509    -0.00000051275546     0.00003456782334
   46     0.00001381151594     0.00000034609607     0.00003123500963     0.00008515297239     0.00055422639830
   47     0.00003118936410     0.00000395308601     0.00004344339912     0.00016014712570     0.00067323974877
   48     0.00000861111646     0.00000262850721     0.00000897254088     0.00004070791970     0.00012664523473
   49     0.00002284747847     0.00000079517847     0.00003976488919     0.00014711575626     0.00068215428345
   50     0.00000160386949     0.00000052003501     0.00000123652355     0.00000408318929     0.00001379891200
   51     0.00000297392800     0.00000046495427     0.00000288221781     0.00001034106612     0.00005195464577
   52     0.00000007514016    -0.00000004930194     0.00000033592517     0.00000062674509     0.00000684660031
   53     0.00000016793063     0.00000000170273     0.00000032398298     0.00000087421521     0.00000594580113
   54     0.00000000529567     0.00000000041477     0.00000000927501     0.00000002707040     0.00000012424700
   55     0.00000004040492     0.00000000379249     0.00000006040065     0.00000025067417     0.00000107447588
   56     0.00000003225339     0.00000000289766     0.00000005185275     0.00000019322346     0.00000087541493
   57     0.00000000206052     0.00000000017966     0.00000000337016     0.00000001243734     0.00000005669904
   58     0.00000001993116     0.00000000136922     0.00000003419252     0.00000012154861     0.00000056528518
   59     0.00000000582275    -0.00000000025080     0.00000000688347     0.00000003680102     0.00000013722728
   60     0.00000000014241     0.00000000000553     0.00000000037032     0.00000000125362     0.00000000551329
   61     0.00000000002200    -0.00000000000049     0.00000000001527     0.00000000075959     0.00000000038549
   62     0.00000000023783    -0.00000000010916     0.00000000004305     0.00000000151382     0.00000000540703
   63     0.00000000354687     0.00000000046372     0.00000000515595     0.00000002081133     0.00000008716931
   64     0.00000000004173     0.00000000001324    -0.00000000013242     0.00000000048154    -0.00000000157212
   65     0.00000000650461     0.00000000050721     0.00000001182419     0.00000004195033     0.00000019350042
   66     0.00000000048669    -0.00000000034852     0.00000000239644     0.00000000503337     0.00000003827979
   67     0.00000001149317     0.00000000139868     0.00000001893114     0.00000007062062     0.00000031713598
   68     0.00000015016549     0.00000001603321     0.00000020828237     0.00000085909095     0.00000372643276
   69     0.00000000601373     0.00000000061272     0.00000000500049     0.00000003016307     0.00000011145438
   70     0.00000003686344     0.00000000403171     0.00000004172926     0.00000019493994     0.00000078566973
   71     0.00009286262330     0.00000762850855     0.00016133194178     0.00057217875939     0.00272432220473
   72     0.00000073175739     0.00000000463241     0.00000106893215     0.00002093248853     0.00002924363645
   73     0.00008493480593     0.00000995415677     0.00010909752580     0.00116767880301     0.00259324024933
   74     0.00000011808877     0.00000002121508     0.00000016346818    -0.00000026424791     0.00000264840083
   75     0.00000000363182     0.00000000043781     0.00000000287069     0.00000001825908     0.00000008459553
   76    -0.00000001097480    -0.00000000219420    -0.00000001360166    -0.00000006905916    -0.00000019393013
   77    -0.00000000092298    -0.00000000008905    -0.00000000226177    -0.00000000612771    -0.00000003091541
   78     0.00000000359936     0.00000000096441     0.00000000039674     0.00000002219535     0.00000001044988
   79     0.00000000062703     0.00000000035112    -0.00000000059393     0.00000000016523    -0.00000001085852
   80     0.00000007165136     0.00000000441470     0.00000013819600     0.00000044885518     0.00000237725418
   81     0.00000032323286     0.00000002027196     0.00000059290240     0.00000208084014     0.00000972327177
   82     0.00000000399678     0.00000000019470     0.00000000662960     0.00000002860598     0.00000011058889
   83     0.00000001316418     0.00000000081435     0.00000002252266     0.00000008780685     0.00000038173000

                41                  42                  43                  44                  45

    1     0.00650305567335     0.00042008120398     0.00000522640160     0.00018925203718     0.00000108153584
    2     0.01082075929215     0.00193426688208     0.00001808562266     0.00043476520331     0.00000835825666
    3     0.00293035433879    -0.00677698653916     0.00017023876567     0.00334901965318     0.00002899613842
    4     0.90032122840159     0.81074618255013     0.00041906914022     0.00359612848492     0.00001080838942
    5     0.00356792790191     0.01237003630269     0.00284773267145     0.01183131715331     0.00042092524668
    6     0.00641865916607     0.00298815994170     0.02628126984496    -0.00093123300025     0.00573968143129
    7     0.00144310593252     0.00547513731384     0.00582987916298    -0.00010609481965     0.01115083450677
    8     0.00026394162659     0.01215971022431     0.82379666561988     0.05017550471905     0.03183798171279
    9     0.00019155823589     0.00364667465684     0.01048558760188     0.80811412172510     0.82462256832825
   10     0.00009558791732     0.00623655018028     0.00087923266850     0.00434805742699     0.01358171203348
   11     0.00006443962571     0.00386996999461     0.00044580244288     0.00286775028773     0.01099268758383
   12     0.00001183720142     0.00157998467086     0.00021738773289     0.01202345464665    -0.00088027975543
   13     0.00001241961144     0.00115854145117     0.00004614210654    -0.00034244014634     0.00130839653433
   14     0.00000238466301     0.00031245242855     0.00002718142900     0.00080247944875     0.00233505491408
   15     0.00000051644837     0.00005637360125     0.00000610852265     0.00011747316554     0.00032201943656
   16     0.00000036672381     0.00007738497834     0.00001149870110     0.00036909593924     0.00083635530964
   17     0.00000060168366     0.00005720730163     0.00000299603371     0.00001907000221     0.00006721791113
   18     0.00000011973489     0.00001093698205     0.00000017067294     0.00000276758988     0.00000365510552
   19     0.00000006865924     0.00000691503056     0.00000006317616     0.00000091195836     0.00000154305903
   20     0.00000037469613     0.00003894560775     0.00000051748422     0.00000609754481     0.00000850962460
   21     0.00000013587723     0.00001402470856     0.00000010369992     0.00000108418622     0.00000144354050
   22     0.00000001767705     0.00000164477047     0.00000000026465    -0.00000003613744    -0.00000006123454
   23     0.00000001010061     0.00000106503990     0.00000001762015     0.00000022261232     0.00000032017415
   24     0.00000000023300     0.00000010225300     0.00000000798959     0.00000020241538     0.00000093007456
   25     0.00000000012613     0.00000008246901    -0.00000000313124     0.00000094539557     0.00000044559266
   26     0.00000000186607     0.00000021736929     0.00000000674628     0.00000020283066     0.00000055830710
   27     0.00000001358854     0.00000160494394     0.00000001552657     0.00000031607429     0.00000044167642
   28     0.00000000612020     0.00000069510033     0.00000001114830     0.00000023577788     0.00000025350421
   29     0.00000011963291     0.00001415082771     0.00000095727279     0.00001049156011     0.00004847279466
   30     0.00000014833988     0.00001707089427     0.00000076116216     0.00001236750021     0.00003402524484
   31     0.00000000435072     0.00000036217516     0.00000009457064     0.00000542163848     0.00000110346830
   32     0.00001187823924     0.00082206662960     0.00011414177670     0.00184283492808     0.00088546753824
   33     0.00009576812571     0.00927815580973     0.00001872286969     0.00720194891061     0.00077867738862
   34     0.00023321224514     0.02172786601509     0.00024148723589     0.00165955641072     0.00241056167736
   35     0.00015981061858     0.01275279891365     0.00020025089820     0.00090232325621     0.00255204865645
   36     0.00015595184621    -0.00004652315763     0.00000125463653     0.00004159059750     0.00000005516244
   37     0.00025608931012    -0.00006368430468    -0.00000032499098     0.00000652790933     0.00000017997529
   38    -0.00027232720214     0.00136335564403    -0.00000036645437     0.00004511826620     0.00000276999509
   39     0.00342814821014    -0.00112740330003    -0.00003232319302     0.00014514702877    -0.00000051275546
   40    -0.00091718663757     0.00270656358039     0.00003887854010     0.00093324257756     0.00003456782334
   41     0.00000000000000     0.00365278500999     0.00013631270153     0.00001171259320     0.00000286163052
   42     0.00365278500999     0.00000000000000     0.00026038049328     0.00236791077688     0.00001058488455
   43     0.00013631270153     0.00026038049328     0.00000000000000     0.00568257278400     0.00046214039077
   44     0.00001171259320     0.00236791077688     0.00568257278400     0.00000000000000     0.00396074229831
   45     0.00000286163052     0.00001058488455     0.00046214039077     0.00396074229831     0.00000000000000
   46     0.00002363794261     0.00118211745995     0.00000225924168     0.00136796186085     0.00258327055206
   47     0.00000831136507     0.00185048783949     0.00107045454135     0.00376986923719    -0.00111880394316
   48     0.00001583283126     0.00040756816922     0.00016051725105     0.00265103877247     0.00319129210905
   49     0.00003246420531     0.00174824368740     0.00010430212697     0.00005504663026     0.00307748238779
   50     0.00000566668759     0.00006070802445     0.00005334329131     0.00404137703307     0.00099962398390
   51     0.00000067982634     0.00016056315834     0.00002514132135     0.00097417913676     0.00013494981994
   52     0.00000144226465     0.00001341003459     0.00000921864537     0.00006031788513    -0.00002481361188
   53     0.00000041899010     0.00001428677069     0.00000114953588    -0.00000506642843     0.00001500292234
   54     0.00000000168034     0.00000029513365     0.00000007739253     0.00000592048211     0.00000219802343
   55     0.00000002343062     0.00000281681980     0.00000002943217    -0.00000019546156     0.00000278385999
   56     0.00000002050724     0.00000225775732     0.00000001494495     0.00000028776816     0.00000044893746
   57     0.00000000141295     0.00000014524190     0.00000000230574     0.00000002329058     0.00000003751763
   58     0.00000001478511     0.00000142887158     0.00000001747914     0.00000012659470     0.00000008685249
   59     0.00000000313673     0.00000038474800     0.00000000537159     0.00000015653468    -0.00000013518517
   60     0.00000000016390     0.00000001254816     0.00000000021471     0.00000000117861    -0.00000000235722
   61     0.00000000001387     0.00000000112361     0.00000000050756    -0.00000000510583    -0.00000000960886
   62     0.00000000012598     0.00000001783236     0.00000000059688     0.00000016648272     0.00000013937657
   63     0.00000000202235     0.00000022761522     0.00000000411218     0.00000012141572     0.00000020063675
   64     0.00000000001483    -0.00000000365394     0.00000000160208     0.00000001953851     0.00000006505883
   65     0.00000000531499     0.00000047775726     0.00000000784568     0.00000005770869     0.00000003850277
   66     0.00000000044512     0.00000006723937     0.00000009038867     0.00000766578660     0.00000113131004
   67     0.00000000770839     0.00000081068689     0.00000002983122     0.00000021661333     0.00000029652186
   68     0.00000008231769     0.00001009355305     0.00000026832487     0.00000621199341     0.00001691653079
   69     0.00000000174520     0.00000037591180     0.00000002466446     0.00000077188299     0.00000339851183
   70     0.00000001670187     0.00000231934985     0.00000008097105     0.00000151273632     0.00000610346289
   71     0.00008275834504     0.00711595109510     0.00007679443987     0.00038420939095     0.00104581784751
   72     0.00000033841060     0.00006102146985     0.00000215324416    -0.00000605761013     0.00002150274775
   73     0.00003680634975     0.00621752426899     0.00004716223366     0.00036342549289     0.00108737292832
   74     0.00000003642984     0.00000728487654    -0.00000005911193     0.00000813841759     0.00001770216477
   75     0.00000000201417     0.00000022460810     0.00000002307100     0.00000069787006     0.00000176959044
   76    -0.00000000157314    -0.00000068848079     0.00000008009947     0.00000365568479     0.00000528265467
   77    -0.00000000084586    -0.00000007671866     0.00000000772079     0.00000031885367     0.00000066013746
   78    -0.00000000032609     0.00000012339983     0.00000008716591     0.00000352218241     0.00000607312698
   79    -0.00000000085843     0.00000000745060     0.00000002484476     0.00000090713873     0.00000186458800
   80     0.00000007279894     0.00000540801244    -0.00000007451860    -0.00000157200670     0.00000293506911
   81     0.00000027563931     0.00002415443112     0.00000016383166     0.00000049810028     0.00000050047234
   82     0.00000000297977     0.00000028319545     0.00000000710259     0.00000002350430     0.00000019946116
   83     0.00000001077195     0.00000095692067     0.00000001097784     0.00000007367729     0.00000002025640

                46                  47                  48                  49                  50

    1     0.00006328067471     0.00014370446477     0.00004432405340     0.00010795633608     0.00001107222383
    2     0.00012748103218     0.00035678510714     0.00012727464470     0.00019976847826     0.00003629293790
    3     0.00122995767822     0.00216294880713     0.00058768607120     0.00176076055531     0.00010599689033
    4     0.00131932657330     0.00208066296118     0.00067511235962     0.00173214246811     0.00010252377464
    5     0.00415791497455     0.00789910733705     0.00262207688745     0.00532837543089     0.00063980228388
    6     0.00536253380917    -0.00057569822844     0.00071207110812     0.00097749359260     0.00023318538438
    7     0.02871462501568     0.00023985955529     0.00929411036618     0.01188988810013     0.00260353528578
    8     0.01163532695238     0.01048117295280     0.03858069087787     0.00485712101742     0.01051502014109
    9     0.00742093846229     0.00745884661511     0.00600008826349     0.00084146724124     0.00788429066299
   10     0.73404131856301     0.81773111673489     0.02233179494278     0.02847378165227    -0.00014019519220
   11     0.02774331619261     0.02394518591307     0.79971732785891     0.65623307785049    -0.00336227853679
   12     0.00612440032225     0.00478610382593     0.00982257959430     0.04526353951130     0.86734290658660
   13     0.00392305779849     0.00159648582423     0.00257695143652     0.00803733874910     0.02419490655138
   14     0.01419512114735     0.00321708702392     0.00018599876366     0.03828624813054     0.00202516460843
   15     0.00171427378572     0.00028222413719     0.00014076892959     0.00325294384350     0.00062390111335
   16     0.00520656290702     0.00109642567006     0.00009683312248     0.01263717726038     0.00114051552787
   17     0.00031265708808     0.00005605152405    -0.00009454428929     0.00039802855736     0.00004251980137
   18     0.00002032756789     0.00000626196944     0.00000288858394     0.00007533852023     0.00001021792583
   19     0.00000552057565     0.00000178815267    -0.00000038004699     0.00001038656414    -0.00000326404942
   20     0.00003460975148     0.00001231305879     0.00000074931726     0.00003910405725     0.00000214203979
   21     0.00000599594154     0.00000226361588     0.00000112374313     0.00000367915882     0.00000587279702
   22     0.00000001803778    -0.00000005357524     0.00000005636523     0.00000143711725     0.00000015806391
   23     0.00000038233136     0.00000032276318    -0.00000005091510     0.00000230514950     0.00000050224312
   24     0.00000592687542     0.00000089451249     0.00000017355286     0.00001277909348    -0.00000187849383
   25     0.00000517496848     0.00000057815691     0.00000189706530     0.00002867083274     0.00000088071080
   26     0.00000331800826     0.00000058300993     0.00000027788860     0.00000742538031     0.00000032999916
   27     0.00000289443920     0.00000074080216    -0.00000029083280     0.00000242894868     0.00000075307559
   28     0.00000146120409     0.00000040941749     0.00000009100288     0.00000191154383    -0.00000025115311
   29     0.00023351404607     0.00004844672157     0.00000263076271     0.00044168417966     0.00012799992030
   30     0.00018695393113     0.00004142104720     0.00000174166493     0.00038921019718     0.00001028671432
   31     0.00001902917631     0.00000687436113    -0.00000067864455     0.00005090470956     0.00000143068506
   32     0.02222363339080     0.00261863978520    -0.00038044896498     0.01228200931411    -0.00572256303284
   33     0.00549026998770     0.00199212155646     0.00047013606846     0.01427039221140     0.00324298416212
   34     0.00914645265741     0.00238215249736     0.00049199229587     0.00786233497564     0.00103373279531
   35     0.00723436748403     0.00229389851032     0.00033458632301     0.00628779902229     0.00102167767597
   36     0.00001381151594     0.00003118936410     0.00000861111646     0.00002284747847     0.00000160386949
   37     0.00000034609607     0.00000395308601     0.00000262850721     0.00000079517847     0.00000052003501
   38     0.00003123500963     0.00004344339912     0.00000897254088     0.00003976488919     0.00000123652355
   39     0.00008515297239     0.00016014712570     0.00004070791970     0.00014711575626     0.00000408318929
   40     0.00055422639830     0.00067323974877     0.00012664523473     0.00068215428345     0.00001379891200
   41     0.00002363794261     0.00000831136507     0.00001583283126     0.00003246420531     0.00000566668759
   42     0.00118211745995     0.00185048783949     0.00040756816922     0.00174824368740     0.00006070802445
   43     0.00000225924168     0.00107045454135     0.00016051725105     0.00010430212697     0.00005334329131
   44     0.00136796186085     0.00376986923719     0.00265103877247     0.00005504663026     0.00404137703307
   45     0.00258327055206    -0.00111880394316     0.00319129210905     0.00307748238779     0.00099962398390
   46     0.00000000000000     0.01119571508154    -0.00280363037398     0.00082789360658    -0.00035681674119
   47     0.01119571508154     0.00000000000000    -0.00085600745654    -0.00222797485184     0.00090427214042
   48    -0.00280363037398    -0.00085600745654     0.00000000000000     0.01114811135596     0.00537512913609
   49     0.00082789360658    -0.00222797485184     0.01114811135596     0.00000000000000     0.00021256148606
   50    -0.00035681674119     0.00090427214042     0.00537512913609     0.00021256148606     0.00000000000000
   51     0.00254554304948     0.00346679658437    -0.00070438535049    -0.00182164857590     0.01139496262386
   52     0.00007125839967     0.00004912403183     0.00216997042678     0.00037128399467     0.00604975033809
   53     0.00010253399259     0.00004263589266    -0.00006230677866     0.00026665725710     0.00253087077980
   54     0.00000257253941    -0.00000000388405     0.00001100556125     0.00000484877769    -0.00000646920254
   55     0.00001280056440     0.00000270414811     0.00000137306520     0.00002032759188     0.00000251799389
   56     0.00000181913405     0.00000078556484     0.00000001727003     0.00000187665517     0.00000096488162
   57     0.00000015413283     0.00000004546369     0.00000000158518     0.00000015338310     0.00000001747943
   58     0.00000014502309     0.00000010466795    -0.00000003057122    -0.00000019818523     0.00000006991181
   59    -0.00000062762894    -0.00000003327279    -0.00000004419946    -0.00000070198749     0.00000064688363
   60    -0.00000000725903     0.00000000180591    -0.00000004606947     0.00000010007097     0.00000012067353
   61     0.00000001015168     0.00000000456330    -0.00000001425750    -0.00000017089666    -0.00000002163919
   62     0.00000063358241     0.00000003455253    -0.00000011091068    -0.00000061270553     0.00000028046034
   63     0.00000120670116     0.00000028413031    -0.00000018635704     0.00000200326818    -0.00000004112219
   64     0.00000019892062     0.00000006294076    -0.00000017059226     0.00000018480305    -0.00000008868492
   65    -0.00000004212237     0.00000001634089     0.00000053148473    -0.00000026926427     0.00000052705245
   66     0.00000405914765     0.00000173690148    -0.00000158726300     0.00000913816908    -0.00005740489969
   67     0.00000184506705     0.00000037232081     0.00000109959870     0.00000536770290     0.00000060431818
   68     0.00008893179145     0.00002089756417     0.00000386376238     0.00019271836629     0.00000557588249
   69     0.00001444333521     0.00000329994727     0.00000078208409     0.00003397345448    -0.00000026929102
   70     0.00002781520966     0.00000461828011     0.00000493570407     0.00006296607315    -0.00000600976333
   71     0.00371136354470     0.00094844974784     0.00013388605454     0.00192927955937     0.00038992590072
   72     0.00022718676795     0.00003693256164    -0.00000031282235     0.00023223411025     0.00002997347372
   73     0.00358948580570     0.00091373328675     0.00019791192200     0.00237398365082     0.00030712640447
   74     0.00009028468634     0.00002318551255    -0.00016788799716     0.00018121752955    -0.00007513870144
   75     0.00000788033775     0.00000216753418    -0.00000369211630     0.00002273762337    -0.00000019983138
   76     0.00004737905238     0.00000353566610     0.00000113522414     0.00011640700555     0.00003101085708
   77     0.00000433039787     0.00000067897923     0.00000202052101     0.00000987450022     0.00000095883957
   78     0.00005172489104     0.00000935139109     0.00000250219989     0.00013191621789     0.00001272979545
   79     0.00001425959219     0.00000234853937     0.00000046243478     0.00003161158869     0.00000368995030
   80     0.00000870514781     0.00000327223108     0.00000051354634     0.00004115149591     0.00001461094982
   81     0.00000113414002     0.00000094065896    -0.00000108925078     0.00000724707801     0.00000325841923
   82     0.00000023545517     0.00000012420319     0.00000058110242     0.00000044870235    -0.00000026845324
   83    -0.00000008132423     0.00000010067289     0.00000081717570    -0.00000023212810     0.00000032168082

                51                  52                  53                  54                  55

    1     0.00001507690476     0.00000048311817     0.00000087709967     0.00000003119349     0.00000024038591
    2     0.00003610755536     0.00000025517474     0.00000159302097     0.00000007788208     0.00000047423182
    3     0.00021222479205     0.00001149915494     0.00001464182456     0.00000039045923     0.00000315253134
    4     0.00020327369760     0.00001145855618     0.00001371394919     0.00000032154822     0.00000301656599
    5     0.00078851696357     0.00004262766926     0.00004223170162     0.00000136682540     0.00001013377442
    6    -0.00003305665992     0.00006549950843     0.00001393664496    -0.00000027058368     0.00000051505343
    7     0.00007372615598     0.00064862177696     0.00014488974658     0.00000032851345     0.00000715763149
    8     0.00147001057363     0.00092237386292     0.00007338679810     0.00000130242856     0.00000013464766
    9     0.00033775549896    -0.00003053701662     0.00001481773110    -0.00001057203702     0.00000126856438
   10     0.00429354992812    -0.00034477993984     0.00013703474803     0.00001842649679     0.00002143693021
   11     0.02696666379842     0.00605828808060     0.00120999854666    -0.00007919066437     0.00002488044566
   12     0.75536026705633     0.01637742435091    -0.00051969059869     0.00003955404245    -0.00002701241912
   13     0.04815659703323     0.81079636255588     0.01333714805409     0.00007168615405     0.00011436859831
   14     0.02555665186779     0.01563737265520     0.82858871747131     0.00208528531539     0.00074847575668
   15     0.00418987929205     0.00187355388028     0.03413913742335     0.01991063329504     0.00455549928025
   16     0.00953227130512     0.00215807211354     0.00408170764121     0.00347345872580     0.00241994071556
   17     0.00024678211517     0.00202269810441    -0.00174007254041     0.90518420493752     0.00319349451708
   18     0.00003613286203    -0.00001290702530    -0.00012675201509     0.00655949450506     0.85492427042084
   19     0.00000261218939    -0.00001415324016     0.00005103801797     0.00019853288960     0.02000711289603
   20     0.00000788393166    -0.00000478445912     0.00000576941382     0.00240060537786     0.01254217074894
   21     0.00000708072540    -0.00003285542456     0.00000131816131     0.00151821401149    -0.00241224334271
   22     0.00000159409230    -0.00000132376932     0.00000638482032    -0.00016370013816     0.00049867352252
   23     0.00000000325315     0.00001545011341    -0.00000503869123     0.00016415306564     0.00010642675170
   24     0.00000877542353     0.00015674214854     0.00001515877972     0.00005941691803     0.00008750851873
   25     0.00001517913623     0.00027128452311     0.00000488203096    -0.00050917755383     0.00060903168599
   26     0.00000629258118    -0.00000381548020     0.00000948322339     0.00004520352914     0.00005540089041
   27    -0.00000245205751     0.00002683910966     0.00000615586559     0.00011488537727     0.00558197308422
   28     0.00000206697089    -0.00000294761906     0.00000570761797     0.00018746767668     0.00106545700216
   29     0.00041711843486    -0.00004980560774    -0.00008702810905    -0.01839849581141     0.00583880307677
   30     0.00024814766834    -0.00000257228835     0.00008253290060     0.01171442843980    -0.00080005101688
   31     0.00009694609612     0.00016015154657     0.00004263444824     0.00308234802958    -0.00566729117484
   32    -0.00072557950427     0.01786810991608    -0.00101049284096    -0.00000721530698     0.00004069694769
   33     0.01242275214215     0.00102357152962     0.00374190181464     0.00000959625614     0.00004687610607
   34     0.00240876050106     0.00324469216594     0.00014047115445     0.00000433019599    -0.00000487644286
   35     0.00074440554829     0.00240719171106     0.00017980407585    -0.00000474894351     0.00000881340337
   36     0.00000297392800     0.00000007514016     0.00000016793063     0.00000000529567     0.00000004040492
   37     0.00000046495427    -0.00000004930194     0.00000000170273     0.00000000041477     0.00000000379249
   38     0.00000288221781     0.00000033592517     0.00000032398298     0.00000000927501     0.00000006040065
   39     0.00001034106612     0.00000062674509     0.00000087421521     0.00000002707040     0.00000025067417
   40     0.00005195464577     0.00000684660031     0.00000594580113     0.00000012424700     0.00000107447588
   41     0.00000067982634     0.00000144226465     0.00000041899010     0.00000000168034     0.00000002343062
   42     0.00016056315834     0.00001341003459     0.00001428677069     0.00000029513365     0.00000281681980
   43     0.00002514132135     0.00000921864537     0.00000114953588     0.00000007739253     0.00000002943217
   44     0.00097417913676     0.00006031788513    -0.00000506642843     0.00000592048211    -0.00000019546156
   45     0.00013494981994    -0.00002481361188     0.00001500292234     0.00000219802343     0.00000278385999
   46     0.00254554304948     0.00007125839967     0.00010253399259     0.00000257253941     0.00001280056440
   47     0.00346679658437     0.00004912403183     0.00004263589266    -0.00000000388405     0.00000270414811
   48    -0.00070438535049     0.00216997042678    -0.00006230677866     0.00001100556125     0.00000137306520
   49    -0.00182164857590     0.00037128399467     0.00026665725710     0.00000484877769     0.00002032759188
   50     0.01139496262386     0.00604975033809     0.00253087077980    -0.00000646920254     0.00000251799389
   51     0.00000000000000    -0.00238486106463     0.00011972759761     0.00002290174967     0.00002150846482
   52    -0.00238486106463     0.00000000000000     0.00699368758354     0.00001711130763     0.00000336496150
   53     0.00011972759761     0.00699368758354     0.00000000000000     0.00346155760592     0.00005730507031
   54     0.00002290174967     0.00001711130763     0.00346155760592     0.00000000000000    -0.00042069683276
   55     0.00002150846482     0.00000336496150     0.00005730507031    -0.00042069683276     0.00000000000000
   56     0.00000008365543     0.00000869336198     0.00000487457561     0.00021786545975    -0.00021538963069
   57     0.00000030492026     0.00000008191091     0.00000108889310     0.00001301159800     0.00014079638320
   58    -0.00000012102065     0.00000064961529     0.00000115965403     0.00000510400280    -0.00006571912582
   59     0.00000250409998     0.00003921011161    -0.00000032301130     0.00038407978095     0.00030547432445
   60     0.00000022014703     0.00000185345740     0.00000070857925     0.00000934830375     0.00003688059439
   61     0.00000067138566     0.00000175386312     0.00000017845428     0.00000726320765    -0.00002395732756
   62    -0.00000457700659     0.00000101264588     0.00000273170326    -0.00001647697372     0.01273902406330
   63     0.00000062313932     0.00000141891485     0.00000161671509     0.00008278678685     0.00008379859863
   64     0.00000111012772     0.00000695448243     0.00000095031896     0.00013056511301     0.00043396507251
   65    -0.00000000551444    -0.00000133878072    -0.00000133301097     0.00003993165331    -0.00068390860920
   66     0.00004419092398     0.00012864351615     0.00015101243489    -0.00033428063391     0.00028752033182
   67    -0.00000179976890    -0.00000014851175     0.00004209216185    -0.00113887844459    -0.00000859513369
   68     0.00007409814377     0.00000962930081    -0.00000399410297    -0.00004559264896     0.00016432411243
   69    -0.00000789770021     0.00001296358407    -0.00000186008607     0.00347121301497     0.00003228391402
   70     0.00005268428217    -0.00009017956352     0.00003312110455     0.00020972086289     0.00024778429907
   71     0.00044576831880     0.00080467168394     0.00006318603725     0.00000057261825     0.00000223338769
   72     0.00002808041321     0.00021183716057     0.00000054410894     0.00000037881991     0.00000021451004
   73     0.00011548689444     0.00019087056470     0.00004716286482     0.00000097563958     0.00000140995236
   74    -0.00035416937766    -0.00352769804217     0.00039109253720     0.00349345936415     0.07441694483253
   75     0.00000979225250    -0.00006246269952     0.00003161620132     0.00047845603765     0.00187468626629
   76     0.00011627299711     0.00031536123614    -0.00006390406358     0.00006578136094    -0.00041360297732
   77     0.00000878615614    -0.00002569792354     0.00002803553085     0.00001321396830    -0.00003069595719
   78     0.00013627982571    -0.00049317884812     0.00012905110361    -0.00021325783221    -0.00083272521270
   79     0.00002249361577     0.00002163685193     0.00000328480243     0.00000450883187    -0.00031610122369
   80     0.00006224151383    -0.00023335525927    -0.00004022930344     0.00003450382985     0.00069397418785
   81     0.00000434988676     0.00007750318481     0.00001838509559     0.00272750096588     0.00126192815402
   82     0.00000569552760    -0.00000769657047    -0.00000038255527     0.00007747042857    -0.00141884623844
   83     0.00000083291622    -0.00000795795692     0.00000404971784     0.00016121529346    -0.00026660867791

                56                  57                  58                  59                  60

    1     0.00000019653633     0.00000001264317     0.00000011774945     0.00000003293599     0.00000000073319
    2     0.00000038782029     0.00000002459174     0.00000022328093     0.00000005584192     0.00000000120610
    3     0.00000250758472     0.00000016044071     0.00000157638877     0.00000043945005     0.00000001313492
    4     0.00000249421028     0.00000015962171     0.00000156904278     0.00000038619671     0.00000001437112
    5     0.00000815324455     0.00000052603703     0.00000504972521     0.00000135593737     0.00000003775551
    6     0.00000039887719     0.00000002935248     0.00000033023555     0.00000013281451     0.00000000319792
    7     0.00000504357012     0.00000038027563     0.00000370439881     0.00000095276825     0.00000002698859
    8     0.00000017173649     0.00000000993010     0.00000006553748     0.00000011555238     0.00000000207244
    9     0.00000058087003     0.00000004313977     0.00000012968259     0.00000052872400    -0.00000000289581
   10     0.00000257198739     0.00000022000209     0.00000052600136     0.00000275340604     0.00000006028352
   11     0.00000394302659     0.00000014641487    -0.00000004631831     0.00000770811013     0.00000009432443
   12    -0.00000202275165     0.00000013471795    -0.00000068000813     0.00000629232192     0.00000015526540
   13     0.00000308668156     0.00000284110161     0.00000593200958    -0.00003667496628    -0.00000078024428
   14    -0.00007074271331     0.00000067702366     0.00000246610162    -0.00000027349513    -0.00001014853006
   15     0.00019630334829     0.00003664468675     0.00005137347367    -0.00015085135056     0.00006206237386
   16     0.00019902292282     0.00002360194749     0.00002023087991     0.00019144862043    -0.00000350256490
   17     0.00068354136109     0.00000523366929     0.00048951932971     0.00086414982620    -0.00028585443747
   18     0.01260185132202     0.00082087538597    -0.00000547724743    -0.00146152652937     0.00027141049097
   19     0.00569474674184    -0.00044396289252     0.00874672500032    -0.01080864408075    -0.00084267076381
   20     0.01201039125251     0.00789441969448     0.00176941324325     0.00218263182314    -0.00017204173405
   21     0.77907537346237     0.02181999241693     0.00241072296715    -0.00052211585354     0.00563548444768
   22     0.02800884501843     0.88426419875176     0.91828444313145    -0.00307230252792     0.03554651520319
   23     0.00129933170294     0.00760444746549    -0.01917057839411     0.72201598183810     0.84143261330930
   24     0.00088651497756     0.00630516770029     0.00129682771699     0.01229599286137     0.04792015895815
   25     0.00008316311641     0.00094425702757    -0.00032600564341    -0.01249189416119     0.00033964585807
   26     0.00024738432825     0.00098963764708     0.00375836628962     0.01025566639347     0.00925546117354
   27    -0.00159825249226     0.00423127374550    -0.00031468039341    -0.00012422293174     0.00154752246659
   28     0.00577163110830     0.00059888537157     0.00649465326689     0.00019695219421     0.00015272386787
   29     0.00111531999854     0.00008421989470    -0.00014902269198     0.02240038731210     0.00024305243279
   30    -0.00002593437939    -0.00007154015462     0.00019294234761     0.06341573193830     0.00006936565314
   31    -0.00013084712614    -0.00008873020945     0.00024376164613     0.04176402263932     0.00027552460533
   32     0.00000563055616     0.00000035893732     0.00000276385631     0.00000121435988     0.00000076039897
   33     0.00000692548778     0.00000072442456     0.00001369294018     0.00000649877270     0.00000110399159
   34     0.00000918281234     0.00000101982849     0.00000898510310     0.00000591710886     0.00000026371022
   35     0.00000849650662     0.00000064687054     0.00000631021631     0.00000134557948     0.00000021174663
   36     0.00000003225339     0.00000000206052     0.00000001993116     0.00000000582275     0.00000000014241
   37     0.00000000289766     0.00000000017966     0.00000000136922    -0.00000000025080     0.00000000000553
   38     0.00000005185275     0.00000000337016     0.00000003419252     0.00000000688347     0.00000000037032
   39     0.00000019322346     0.00000001243734     0.00000012154861     0.00000003680102     0.00000000125362
   40     0.00000087541493     0.00000005669904     0.00000056528518     0.00000013722728     0.00000000551329
   41     0.00000002050724     0.00000000141295     0.00000001478511     0.00000000313673     0.00000000016390
   42     0.00000225775732     0.00000014524190     0.00000142887158     0.00000038474800     0.00000001254816
   43     0.00000001494495     0.00000000230574     0.00000001747914     0.00000000537159     0.00000000021471
   44     0.00000028776816     0.00000002329058     0.00000012659470     0.00000015653468     0.00000000117861
   45     0.00000044893746     0.00000003751763     0.00000008685249    -0.00000013518517    -0.00000000235722
   46     0.00000181913405     0.00000015413283     0.00000014502309    -0.00000062762894    -0.00000000725903
   47     0.00000078556484     0.00000004546369     0.00000010466795    -0.00000003327279     0.00000000180591
   48     0.00000001727003     0.00000000158518    -0.00000003057122    -0.00000004419946    -0.00000004606947
   49     0.00000187665517     0.00000015338310    -0.00000019818523    -0.00000070198749     0.00000010007097
   50     0.00000096488162     0.00000001747943     0.00000006991181     0.00000064688363     0.00000012067353
   51     0.00000008365543     0.00000030492026    -0.00000012102065     0.00000250409998     0.00000022014703
   52     0.00000869336198     0.00000008191091     0.00000064961529     0.00003921011161     0.00000185345740
   53     0.00000487457561     0.00000108889310     0.00000115965403    -0.00000032301130     0.00000070857925
   54     0.00021786545975     0.00001301159800     0.00000510400280     0.00038407978095     0.00000934830375
   55    -0.00021538963069     0.00014079638320    -0.00006571912582     0.00030547432445     0.00003688059439
   56     0.00000000000000    -0.00217019438231    -0.00070739199079     0.00046259915893     0.00025087078482
   57    -0.00217019438231     0.00000000000000     0.01543335231543    -0.00278177342815     0.00183585771576
   58    -0.00070739199079     0.01543335231543     0.00000000000000     0.02478986637584    -0.00149102923621
   59     0.00046259915893    -0.00278177342815     0.02478986637584     0.00000000000000     0.00162211906533
   60     0.00025087078482     0.00183585771576    -0.00149102923621     0.00162211906533     0.00000000000000
   61     0.00000522303109     0.00001171894781     0.00036493697402     0.00302593092558     0.00059762570891
   62    -0.00121584795677     0.00193799518753     0.00003595898437     0.00043481813491    -0.00009937965774
   63     0.00366954367413     0.00020661022051    -0.00007684411868    -0.00012068635523     0.00006094616491
   64    -0.00014839734749     0.00019970625729     0.00212491845082     0.00034459440287    -0.00000684843116
   65     0.00073643634015     0.00007242548856     0.00034404386540    -0.00007525636917     0.00004132254135
   66    -0.00009563937310     0.00000184030410     0.00001207769209     0.00035832973805     0.00000622810083
   67    -0.00004685675828     0.00003430335959    -0.00064185092030    -0.01005763581500     0.00005720564453
   68     0.00003602240126     0.00003738608892     0.00003569481891     0.00213413775108    -0.00000779909816
   69     0.00006814052221    -0.00000016390786     0.00001612372474     0.00497565879061     0.00000105693935
   70     0.00006091022589     0.00004488241202     0.00000074956461    -0.00486811007882     0.00008470968289
   71     0.00000404744994     0.00000035589484     0.00000378017428     0.00000184395543     0.00000019755290
   72     0.00000022723462     0.00000001557996     0.00000002351652     0.00000078253947     0.00000003865926
   73     0.00000336312793     0.00000019760818     0.00000284963597     0.00000100178692     0.00000003527670
   74     0.00633562822689     0.00019426254076     0.00095523340998    -0.11053980853630    -0.00620440244117
   75    -0.00003051528995    -0.00004166823213    -0.00005360353349     0.00724354321600    -0.00040830010678
   76    -0.00010861365893     0.00000186113426    -0.00001711648113     0.00180356131894    -0.00003136986305
   77    -0.00012622245241    -0.00001448314570    -0.00001189458758     0.00256358431584     0.00007179826929
   78     0.00241836841874     0.00018023498486     0.00000530123938     0.00126854131230    -0.00015910393548
   79     0.00001963660149     0.00000099644648     0.00000022122052     0.00016808852701     0.00000572709954
   80    -0.00002110128908     0.00001826091210     0.00000274102605    -0.00015223556295     0.00001582142831
   81     0.04388090758361     0.00239942346582     0.00001213274711     0.00018979750990     0.00005489448705
   82     0.00036997121930     0.00001814624992     0.00001676081433    -0.00059849201783     0.00013720000773
   83     0.00160776275746     0.00008303649265     0.00000631172433     0.00040279032018     0.00000556084415

                61                  62                  63                  64                  65

    1     0.00000000014846     0.00000000158107     0.00000002364441     0.00000000045445     0.00000003989256
    2     0.00000000029817     0.00000000082156     0.00000004958558     0.00000000129984     0.00000007557796
    3     0.00000000145115     0.00000001936214     0.00000025825802    -0.00000000241391     0.00000051792621
    4     0.00000000130546     0.00000001312269     0.00000025694629    -0.00000000269799     0.00000053329107
    5     0.00000000571303     0.00000005259919     0.00000090023667     0.00000000459293     0.00000170310787
    6    -0.00000000096043     0.00000000374386     0.00000003960355    -0.00000000130116     0.00000010543995
    7     0.00000000744197     0.00000006845043     0.00000051788695     0.00000001538262     0.00000117125381
    8     0.00000001014324     0.00000005210736     0.00000003488886     0.00000003126846     0.00000002925310
    9    -0.00000004029607    -0.00000038309374     0.00000016142921    -0.00000006896687     0.00000009185664
   10    -0.00000021413074    -0.00000141263269     0.00000133134178    -0.00000006031855     0.00000004719718
   11    -0.00000025697685    -0.00000336719151     0.00000316757426    -0.00000004830909    -0.00000093978864
   12    -0.00000037363154     0.00001331722213     0.00000181234200     0.00000000688185    -0.00000023956593
   13    -0.00000006086701     0.00000277856831    -0.00000059798323    -0.00000208388218    -0.00000460963187
   14    -0.00000093880172     0.00000549048600     0.00003540360977     0.00000240613627    -0.00000501651383
   15     0.00005891347753    -0.00075778705315     0.00002881396072     0.00028916141014     0.00014589694089
   16    -0.00002200604348    -0.00000450544036     0.00018791541011     0.00012631054105     0.00066819278410
   17     0.00001929627128     0.00074854710715     0.00035754480826    -0.00014503045727     0.00006616867821
   18    -0.00001751209248     0.00601882326548     0.00238688128366     0.00193939428277     0.00004905555546
   19    -0.00008228081232    -0.00126123874160     0.00227402533023     0.00005513751890     0.00317808964099
   20     0.00013076921115     0.00117553404028     0.01190936977132     0.00444666489460     0.00174103869885
   21     0.00004620783917     0.01490912659218     0.00850797899270    -0.00755677382558     0.00924833548955
   22    -0.00009437188921     0.00826351936613    -0.00185872402098     0.01899001040750     0.00211667848615
   23     0.00705776044502     0.00093607234559     0.00030069644844    -0.00382205361910    -0.00008217312886
   24     0.03504403677879     0.00072990013588     0.00049184985069     0.01695573334631     0.00071340748951
   25     0.00745140816271    -0.00394616784925     0.00070557259143     0.00513577607014    -0.00087071052856
   26     0.83110039144195     0.00023834737391     0.00013074303658     0.00764618816103     0.00027557627118
   27    -0.00010422508541     0.84587159367612     0.00414490610513    -0.00330294518377    -0.00482337032874
   28    -0.00007409409837    -0.00465469156903     0.82145599103754     0.91419923766111     0.94280270729631
   29    -0.00002215655576    -0.00073795889991     0.00010181178327     0.00015043771696     0.00030406658277
   30     0.00003603481732     0.00012472207336     0.00031173889500     0.00024997773425     0.00016962789082
   31    -0.00002742764092    -0.00050809347696    -0.00019007548080     0.00036309869823     0.00070061240941
   32     0.00000156603414     0.00000242727715     0.00000635184878     0.00000390896480     0.00000228236422
   33    -0.00000039537310    -0.00000105578080     0.00000021227187    -0.00000083371630     0.00000388225335
   34     0.00000025456910    -0.00000078415292     0.00000059429670    -0.00000035703229     0.00000337464576
   35     0.00000010776421    -0.00000028335540     0.00000056221135     0.00000017935135     0.00000301264986
   36     0.00000000002200     0.00000000023783     0.00000000354687     0.00000000004173     0.00000000650461
   37    -0.00000000000049    -0.00000000010916     0.00000000046372     0.00000000001324     0.00000000050721
   38     0.00000000001527     0.00000000004305     0.00000000515595    -0.00000000013242     0.00000001182419
   39     0.00000000075959     0.00000000151382     0.00000002081133     0.00000000048154     0.00000004195033
   40     0.00000000038549     0.00000000540703     0.00000008716931    -0.00000000157212     0.00000019350042
   41     0.00000000001387     0.00000000012598     0.00000000202235     0.00000000001483     0.00000000531499
   42     0.00000000112361     0.00000001783236     0.00000022761522    -0.00000000365394     0.00000047775726
   43     0.00000000050756     0.00000000059688     0.00000000411218     0.00000000160208     0.00000000784568
   44    -0.00000000510583     0.00000016648272     0.00000012141572     0.00000001953851     0.00000005770869
   45    -0.00000000960886     0.00000013937657     0.00000020063675     0.00000006505883     0.00000003850277
   46     0.00000001015168     0.00000063358241     0.00000120670116     0.00000019892062    -0.00000004212237
   47     0.00000000456330     0.00000003455253     0.00000028413031     0.00000006294076     0.00000001634089
   48    -0.00000001425750    -0.00000011091068    -0.00000018635704    -0.00000017059226     0.00000053148473
   49    -0.00000017089666    -0.00000061270553     0.00000200326818     0.00000018480305    -0.00000026926427
   50    -0.00000002163919     0.00000028046034    -0.00000004112219    -0.00000008868492     0.00000052705245
   51     0.00000067138566    -0.00000457700659     0.00000062313932     0.00000111012772    -0.00000000551444
   52     0.00000175386312     0.00000101264588     0.00000141891485     0.00000695448243    -0.00000133878072
   53     0.00000017845428     0.00000273170326     0.00000161671509     0.00000095031896    -0.00000133301097
   54     0.00000726320765    -0.00001647697372     0.00008278678685     0.00013056511301     0.00003993165331
   55    -0.00002395732756     0.01273902406330     0.00008379859863     0.00043396507251    -0.00068390860920
   56     0.00000522303109    -0.00121584795677     0.00366954367413    -0.00014839734749     0.00073643634015
   57     0.00001171894781     0.00193799518753     0.00020661022051     0.00019970625729     0.00007242548856
   58     0.00036493697402     0.00003595898437    -0.00007684411868     0.00212491845082     0.00034404386540
   59     0.00302593092558     0.00043481813491    -0.00012068635523     0.00034459440287    -0.00007525636917
   60     0.00059762570891    -0.00009937965774     0.00006094616491    -0.00000684843116     0.00004132254135
   61     0.00000000000000     0.00002264277717     0.00001129736471    -0.00005817000361     0.00000668680996
   62     0.00002264277717     0.00000000000000     0.00011837442511     0.00770401115965    -0.00433711417864
   63     0.00001129736471     0.00011837442511     0.00000000000000     0.01619287047692     0.01483879646399
   64    -0.00005817000361     0.00770401115965     0.01619287047692     0.00000000000000     0.00442882369156
   65     0.00000668680996    -0.00433711417864     0.01483879646399     0.00442882369156     0.00000000000000
   66    -0.00001459054509     0.00030046419978    -0.00004728783656    -0.00000509952512    -0.00002718694124
   67    -0.00012426044049     0.00011887959715     0.00000156196819    -0.00001536012288     0.00001412154907
   68     0.00000027516467    -0.00014258532141     0.00002654790218    -0.00002272052961     0.00000161054825
   69    -0.00000919125801     0.00004334838000     0.00007912337463     0.00002168572310    -0.00003624538593
   70     0.00000018175998     0.00059422834269     0.00010299517690    -0.00006238494981     0.00052415209672
   71     0.00000042044124     0.00000005178223     0.00000040687919     0.00000027729844     0.00000301717724
   72     0.00000019967694     0.00000006079156     0.00000019750454     0.00000034999892     0.00000078661234
   73     0.00000001467437     0.00000018432261    -0.00000000547269    -0.00000002125638     0.00000024011045
   74    -0.01272937550349     0.02477989032071     0.00601153715241    -0.01184850660341     0.00872613509401
   75    -0.00103198217376     0.00092408876623     0.00004617587130     0.00004193332474     0.00037034405519
   76    -0.00006512252472     0.00006559073528    -0.00007157379012    -0.00008630491120    -0.00002403565779
   77     0.00007419990595     0.00035630058355     0.00012444337288     0.00024845521072    -0.00013473704950
   78    -0.00014055654761    -0.00615514408712     0.00377833381043     0.00086354249564    -0.00090881702398
   79     0.00000822046435    -0.00019519641720    -0.00000118661099    -0.00001377282548    -0.00024208713100
   80     0.00002441065452    -0.00018197668160     0.00004337047059    -0.00001257663293    -0.00002886919218
   81     0.00035028932825     0.00891468388700     0.04681961620776     0.01705316672345     0.01737176518032
   82     0.00031173035358    -0.00030953752839     0.00084457977667     0.00077715096088     0.00046064745292
   83     0.00002318355829     0.00017140878097     0.00147583201343     0.00070204562593    -0.00032737743458

                66                  67                  68                  69                  70

    1    -0.00000000057736     0.00000007165205     0.00000094104001     0.00000004176523     0.00000020441183
    2    -0.00000001673269     0.00000014624015     0.00000193970783     0.00000008905641     0.00000045100367
    3     0.00000004735974     0.00000090494058     0.00001131054602     0.00000040238360     0.00000253016504
    4     0.00000006473955     0.00000090653048     0.00001064007259     0.00000032556023     0.00000225523333
    5    -0.00000011821381     0.00000298752252     0.00003802619035     0.00000148474934     0.00000845309930
    6    -0.00000021559154     0.00000014701118     0.00000185784544     0.00000008885974     0.00000052830637
    7    -0.00000032183829     0.00000219488894     0.00002958138452     0.00000137120646     0.00000747501907
    8     0.00000022045936     0.00000000433744     0.00000080682451     0.00000010617547     0.00000015085736
    9    -0.00000343111486     0.00000033718992     0.00001128218539     0.00000052742043     0.00000330675827
   10     0.00000831381586     0.00000299502743     0.00012308974969     0.00001515690892     0.00003646982997
   11     0.00001714897666     0.00000317981182     0.00017793135657     0.00002665133449     0.00004056085800
   12     0.00009278365511    -0.00000307067408     0.00015417481009     0.00007497132529     0.00008110507164
   13    -0.00084848904804     0.00003170245042     0.00040252684663    -0.00006708698869     0.00037993717184
   14    -0.00073725065316    -0.00000855448701     0.00012933153209    -0.00009485043876     0.00040132511596
   15    -0.02377776801355    -0.00048818086481    -0.00131221706254    -0.00051521472820     0.00176473842613
   16    -0.00239507990435    -0.00015707486915     0.00114327107369    -0.00015866441227     0.00034853508429
   17     0.14617964914873    -0.00786902848982     0.01394815121784    -0.01257502384404    -0.00205168381149
   18     0.00155641531170    -0.00006249478933    -0.00238757132265     0.00053218083264     0.00886945388039
   19    -0.00024367401764     0.00252297916286     0.00083045995525     0.00009493021543     0.00142358637552
   20     0.00025478406668     0.00911707745259     0.00085146002726     0.00011642293889     0.00104598263425
   21     0.00004674701797     0.00057122952217     0.00029306838581     0.00003502954699    -0.00016504010082
   22     0.00007195378959    -0.00035174387539    -0.00010425533682     0.00006026540431     0.00017371620030
   23     0.00154597409808     0.00793089672637    -0.00026571818999    -0.00065189806604     0.00563754520751
   24    -0.00000829102754    -0.00001734718429     0.00014646860704    -0.00020959572360     0.00653797703074
   25     0.00002859075351    -0.00106363211180    -0.00010162494930     0.00054672835407     0.01146953475390
   26     0.00009501876564    -0.00034399279452    -0.00003389974392     0.00003784128134     0.00032341487794
   27     0.00048936074489     0.00011311444226    -0.00015375609093     0.00049484251171     0.00031642247967
   28     0.00010708263060    -0.00001564958922     0.00006377585835     0.00014330804058    -0.00077489888769
   29     0.66227636601263     0.05152258256248     0.31593578085325     0.07497779286981     0.18784328285124
   30    -0.01024275787600     0.88404544996845     0.65462698355650     0.84834317175397    -0.01498783118332
   31     0.01237988760687    -0.00795833976121    -0.03876918290852    -0.01306204737369     0.66267710815370
   32     0.00032417016955     0.00000840750247     0.00015705696214     0.00003698389997    -0.00002095196469
   33     0.00003291687438     0.00000262715366     0.00020988634279     0.00007050163670     0.00010871123872
   34     0.00001357343258     0.00000271437134     0.00004582917998     0.00000794134628     0.00002371275361
   35    -0.00001143259980     0.00000246602322     0.00003231681738     0.00000511552014     0.00002419641167
   36     0.00000000048669     0.00000001149317     0.00000015016549     0.00000000601373     0.00000003686344
   37    -0.00000000034852     0.00000000139868     0.00000001603321     0.00000000061272     0.00000000403171
   38     0.00000000239644     0.00000001893114     0.00000020828237     0.00000000500049     0.00000004172926
   39     0.00000000503337     0.00000007062062     0.00000085909095     0.00000003016307     0.00000019493994
   40     0.00000003827979     0.00000031713598     0.00000372643276     0.00000011145438     0.00000078566973
   41     0.00000000044512     0.00000000770839     0.00000008231769     0.00000000174520     0.00000001670187
   42     0.00000006723937     0.00000081068689     0.00001009355305     0.00000037591180     0.00000231934985
   43     0.00000009038867     0.00000002983122     0.00000026832487     0.00000002466446     0.00000008097105
   44     0.00000766578660     0.00000021661333     0.00000621199341     0.00000077188299     0.00000151273632
   45     0.00000113131004     0.00000029652186     0.00001691653079     0.00000339851183     0.00000610346289
   46     0.00000405914765     0.00000184506705     0.00008893179145     0.00001444333521     0.00002781520966
   47     0.00000173690148     0.00000037232081     0.00002089756417     0.00000329994727     0.00000461828011
   48    -0.00000158726300     0.00000109959870     0.00000386376238     0.00000078208409     0.00000493570407
   49     0.00000913816908     0.00000536770290     0.00019271836629     0.00003397345448     0.00006296607315
   50    -0.00005740489969     0.00000060431818     0.00000557588249    -0.00000026929102    -0.00000600976333
   51     0.00004419092398    -0.00000179976890     0.00007409814377    -0.00000789770021     0.00005268428217
   52     0.00012864351615    -0.00000014851175     0.00000962930081     0.00001296358407    -0.00009017956352
   53     0.00015101243489     0.00004209216185    -0.00000399410297    -0.00000186008607     0.00003312110455
   54    -0.00033428063391    -0.00113887844459    -0.00004559264896     0.00347121301497     0.00020972086289
   55     0.00028752033182    -0.00000859513369     0.00016432411243     0.00003228391402     0.00024778429907
   56    -0.00009563937310    -0.00004685675828     0.00003602240126     0.00006814052221     0.00006091022589
   57     0.00000184030410     0.00003430335959     0.00003738608892    -0.00000016390786     0.00004488241202
   58     0.00001207769209    -0.00064185092030     0.00003569481891     0.00001612372474     0.00000074956461
   59     0.00035832973805    -0.01005763581500     0.00213413775108     0.00497565879061    -0.00486811007882
   60     0.00000622810083     0.00005720564453    -0.00000779909816     0.00000105693935     0.00008470968289
   61    -0.00001459054509    -0.00012426044049     0.00000027516467    -0.00000919125801     0.00000018175998
   62     0.00030046419978     0.00011887959715    -0.00014258532141     0.00004334838000     0.00059422834269
   63    -0.00004728783656     0.00000156196819     0.00002654790218     0.00007912337463     0.00010299517690
   64    -0.00000509952512    -0.00001536012288    -0.00002272052961     0.00002168572310    -0.00006238494981
   65    -0.00002718694124     0.00001412154907     0.00000161054825    -0.00003624538593     0.00052415209672
   66     0.00000000000000     0.00811185187988    -0.00505299203463    -0.00643415473988     0.00447477663448
   67     0.00811185187988     0.00000000000000    -0.00071434197141     0.01234980270187     0.00198874756499
   68    -0.00505299203463    -0.00071434197141     0.00000000000000    -0.00064092362074     0.04951513022316
   69    -0.00643415473988     0.01234980270187    -0.00064092362074     0.00000000000000     0.00811030867202
   70     0.00447477663448     0.00198874756499     0.04951513022316     0.00811030867202     0.00000000000000
   71     0.00000481058405     0.00000094478752     0.00000035488381     0.00000034721535     0.00000413265991
   72    -0.00000030860399     0.00000001565569     0.00000060581571    -0.00000043005598    -0.00000074984544
   73     0.00000825795678     0.00000139432123     0.00000631443470     0.00000026361312    -0.00000018556151
   74    -0.00509368340516    -0.01247581832166    -0.01285317459510     0.01801510320869    -0.36644548225114
   75    -0.00069833297381    -0.00049018171607    -0.00008110200364     0.00084124676637     0.00890923093249
   76     0.00032560844096     0.00014220602893    -0.00016132767811    -0.00006535973336     0.00405490039824
   77     0.00006650650233     0.00014285998667    -0.00015571563556     0.00022574128579     0.00122987939964
   78     0.00018981146954     0.00001868284361    -0.00016669946562     0.00078849718190    -0.00010546820926
   79    -0.00002722971245     0.00000031442313    -0.00000249180473    -0.00001391254066     0.00018843481283
   80    -0.00002367730629     0.00000019866217    -0.00001867348568    -0.00000673350434    -0.00015116960376
   81     0.00025582488695    -0.00000436675749     0.00032147045741     0.00164443793841    -0.00137271859061
   82    -0.00015547366063     0.00004341939949     0.00001118844172     0.00001068611794    -0.00148827508432
   83    -0.00001516851544     0.00000749695917    -0.00002319566731    -0.00006155767464    -0.00021255056955

                71                  72                  73                  74                  75

    1     0.00049163730059     0.00000392917736     0.00039956661789     0.00000079386691     0.00000002687500
    2     0.00100442395050     0.00000970794134     0.00079145242501     0.00000178971881     0.00000004837878
    3     0.00772524280001     0.00008770216088     0.00770611529072     0.00000829067290     0.00000027882509
    4     0.00788658167458     0.00006483771204     0.00695700408867     0.00000786119915     0.00000025349567
    5     0.02298206175445     0.00017777572497     0.02309831905237     0.00002995431330     0.00000096444175
    6     0.00112632853412     0.00002058295735     0.00506209878654     0.00000076831211     0.00000023311234
    7     0.02169644020985     0.00005700510038     0.07876917844326     0.00001028637735     0.00000061814703
    8     0.00032384515031     0.00001117312478     0.00065055584588    -0.00000431192627     0.00000016087750
    9     0.00153595392440     0.00001673124379     0.00198640885177     0.00003458512851     0.00000171743371
   10     0.00568763228923     0.00012094213609     0.00536261807119     0.00013445263043     0.00001688356070
   11     0.00287551687782     0.00029101055790     0.00369109202353     0.00025674052147     0.00003684100653
   12     0.00135476814158    -0.00005840224437     0.00093676469800     0.00051032313614     0.00003167258074
   13     0.00508455926899     0.00056250564557     0.00310060600758     0.00125710879544     0.00027951500916
   14     0.00180893773218     0.00040875653564     0.00027887171641     0.00515636794089     0.00045290071146
   15     0.00010265672875     0.00001929292902     0.00001650858987    -0.05863798685235    -0.00148028282806
   16     0.00050628511414     0.00011052818877     0.00017041102166     0.36089738581921    -0.00031782192158
   17     0.00002692059976     0.00001116090625    -0.00000104643293     0.00706570607555     0.00587727537254
   18     0.00002485217225     0.00000094976382     0.00001899233167     0.32260554236280     0.00397369789157
   19     0.00001417698747     0.00000046640455     0.00001137960623    -0.05327843227035    -0.00378204936358
   20     0.00007911955991     0.00000108487053     0.00006231148798     0.02231335974806     0.00079577984386
   21     0.00003163300611     0.00000036436627     0.00002854928660     0.01688355978116     0.00127856815226
   22     0.00000655261425     0.00000006360065     0.00000524117660     0.00301827550053     0.00035108067041
   23     0.00000237765124     0.00000007906760     0.00000016586382     0.09205587496913    -0.00593522514464
   24     0.00000161867593     0.00000069149412     0.00000112429012    -0.03319393298407     0.01675486100207
   25     0.00000183502660     0.00000074014505     0.00000123348103     0.51120096066735     0.07048296662021
   26     0.00000108824168     0.00000003913346     0.00000073113246    -0.02657004687559     0.00545406045507
   27     0.00000358070029     0.00000009660653     0.00000176947623     0.20379035769922     0.00029954942265
   28     0.00000093749097    -0.00000006385185     0.00000105908390     0.03546876761447     0.00028121705250
   29     0.00000034278442     0.00000349745517    -0.00000184092527     0.09108754512394    -0.00561679988865
   30     0.00000055002179     0.00000259184258     0.00000368527014     0.00973871404992     0.00094102405006
   31     0.00000397816350     0.00000167992661    -0.00000075972474    -0.04158553717835     0.02184944406121
   32     0.00972576558800     0.00854143887363     0.00940255884261    -0.00082517228303    -0.00000406491475
   33     0.02122886651365     0.00175598843016     0.01563190167484    -0.00005594943648     0.00005898000407
   34     0.03769194570655     0.00515362768113     0.03228410274597    -0.00041422465993     0.00001298107507
   35     0.71349699666679     0.92795322886927     0.75739054487762    -0.00019838886906     0.00000465925697
   36     0.00009286262330     0.00000073175739     0.00008493480593     0.00000011808877     0.00000000363182
   37     0.00000762850855     0.00000000463241     0.00000995415677     0.00000002121508     0.00000000043781
   38     0.00016133194178     0.00000106893215     0.00010909752580     0.00000016346818     0.00000000287069
   39     0.00057217875939     0.00002093248853     0.00116767880301    -0.00000026424791     0.00000001825908
   40     0.00272432220473     0.00002924363645     0.00259324024933     0.00000264840083     0.00000008459553
   41     0.00008275834504     0.00000033841060     0.00003680634975     0.00000003642984     0.00000000201417
   42     0.00711595109510     0.00006102146985     0.00621752426899     0.00000728487654     0.00000022460810
   43     0.00007679443987     0.00000215324416     0.00004716223366    -0.00000005911193     0.00000002307100
   44     0.00038420939095    -0.00000605761013     0.00036342549289     0.00000813841759     0.00000069787006
   45     0.00104581784751     0.00002150274775     0.00108737292832     0.00001770216477     0.00000176959044
   46     0.00371136354470     0.00022718676795     0.00358948580570     0.00009028468634     0.00000788033775
   47     0.00094844974784     0.00003693256164     0.00091373328675     0.00002318551255     0.00000216753418
   48     0.00013388605454    -0.00000031282235     0.00019791192200    -0.00016788799716    -0.00000369211630
   49     0.00192927955937     0.00023223411025     0.00237398365082     0.00018121752955     0.00002273762337
   50     0.00038992590072     0.00002997347372     0.00030712640447    -0.00007513870144    -0.00000019983138
   51     0.00044576831880     0.00002808041321     0.00011548689444    -0.00035416937766     0.00000979225250
   52     0.00080467168394     0.00021183716057     0.00019087056470    -0.00352769804217    -0.00006246269952
   53     0.00006318603725     0.00000054410894     0.00004716286482     0.00039109253720     0.00003161620132
   54     0.00000057261825     0.00000037881991     0.00000097563958     0.00349345936415     0.00047845603765
   55     0.00000223338769     0.00000021451004     0.00000140995236     0.07441694483253     0.00187468626629
   56     0.00000404744994     0.00000022723462     0.00000336312793     0.00633562822689    -0.00003051528995
   57     0.00000035589484     0.00000001557996     0.00000019760818     0.00019426254076    -0.00004166823213
   58     0.00000378017428     0.00000002351652     0.00000284963597     0.00095523340998    -0.00005360353349
   59     0.00000184395543     0.00000078253947     0.00000100178692    -0.11053980853630     0.00724354321600
   60     0.00000019755290     0.00000003865926     0.00000003527670    -0.00620440244117    -0.00040830010678
   61     0.00000042044124     0.00000019967694     0.00000001467437    -0.01272937550349    -0.00103198217376
   62     0.00000005178223     0.00000006079156     0.00000018432261     0.02477989032071     0.00092408876623
   63     0.00000040687919     0.00000019750454    -0.00000000547269     0.00601153715241     0.00004617587130
   64     0.00000027729844     0.00000034999892    -0.00000002125638    -0.01184850660341     0.00004193332474
   65     0.00000301717724     0.00000078661234     0.00000024011045     0.00872613509401     0.00037034405519
   66     0.00000481058405    -0.00000030860399     0.00000825795678    -0.00509368340516    -0.00069833297381
   67     0.00000094478752     0.00000001565569     0.00000139432123    -0.01247581832166    -0.00049018171607
   68     0.00000035488381     0.00000060581571     0.00000631443470    -0.01285317459510    -0.00008110200364
   69     0.00000034721535    -0.00000043005598     0.00000026361312     0.01801510320869     0.00084124676637
   70     0.00000413265991    -0.00000074984544    -0.00000018556151    -0.36644548225114     0.00890923093249
   71     0.00000000000000     0.00520519742040     0.01259030835338    -0.00072035179869     0.00000447667218
   72     0.00520519742040     0.00000000000000     0.00451819881700    -0.00033019042075     0.00000147713321
   73     0.01259030835338     0.00451819881700     0.00000000000000     0.00006517572927    -0.00000081411184
   74    -0.00072035179869    -0.00033019042075     0.00006517572927     0.00000000000000     0.20840155783145
   75     0.00000447667218     0.00000147713321    -0.00000081411184     0.20840155783145     0.00000000000000
   76     0.00000954156592    -0.00000081384768     0.00000327894995    -0.27641237534086     0.65787547305671
   77     0.00000162351614     0.00000030953329     0.00000024466391    -0.07975746884190     0.63393325979407
   78     0.00001704495905     0.00000227145524     0.00000138737847     1.17175853754616    -0.01499619461706
   79     0.00000361900450     0.00000138106810     0.00000184660741     0.00965875398943    -0.00018323307733
   80     0.00001611469971    -0.00000351844402    -0.00000387030489     0.07485156845499    -0.00418356304833
   81     0.00008752298119     0.00000115116358     0.00007170909031     0.30218115614655    -0.00181945090199
   82     0.00000232810077     0.00000099356314     0.00000192093015    -0.03187723832540    -0.00123582498612
   83     0.00000585547487     0.00000208014110     0.00000217083435    -0.04220677195570     0.00051872413564

                76                  77                  78                  79                  80

    1    -0.00000005030266    -0.00000000422881     0.00000002639002     0.00000000696275     0.00000034507577
    2    -0.00000014393845    -0.00000001050068     0.00000008457858     0.00000002340055     0.00000062061623
    3    -0.00000067258573    -0.00000007279772     0.00000015418492     0.00000000568508     0.00000622172750
    4    -0.00000062183764    -0.00000008314466     0.00000009552342    -0.00000001514255     0.00000660770200
    5    -0.00000241811071    -0.00000022461270     0.00000087111411     0.00000015839831     0.00001759251529
    6     0.00000017518681     0.00000002749759     0.00000039862878     0.00000003285337     0.00000126112868
    7     0.00000109086468    -0.00000020379336     0.00000165816835     0.00000036566364     0.00001466387274
    8    -0.00000079141352     0.00000006032105     0.00000020283405     0.00000005115218     0.00000007087110
    9     0.00000657348806     0.00000077954709     0.00001008296871     0.00000177230103    -0.00000072257656
   10     0.00006514493680     0.00000693414085     0.00008938120854     0.00001894894189     0.00002486298515
   11     0.00017184762921     0.00001405204878     0.00020073125974     0.00004302757276     0.00005143194355
   12     0.00017319585487     0.00000438220054     0.00020879911816     0.00005050618409     0.00008124315848
   13     0.00001072379062     0.00004215414459     0.00027347910178     0.00003651079802     0.00046839443458
   14     0.00021345732552     0.00010227581985     0.00020836703146     0.00003794385995     0.00001255464897
   15     0.00626300971869     0.00046672739139     0.00130342435162     0.00080688444632     0.00004934169486
   16     0.02400076833155     0.00290751787350    -0.00473526000802     0.00004436928034    -0.00085476190560
   17    -0.00101475521928     0.00100924518076    -0.00293025017958    -0.00009337062734     0.00068902570042
   18     0.00171872930781    -0.00007940756607    -0.01013635552819    -0.00000163844554    -0.00084307555141
   19    -0.00009021996919    -0.00028718096489    -0.00069578612211     0.00003483543285    -0.00000930461008
   20     0.00056581324282     0.00007579722648     0.00713913658174     0.00002200023948    -0.00040639648974
   21    -0.00003664506215     0.00018030527841     0.00395995082824    -0.00005885422819    -0.00020184315869
   22     0.00023721360178     0.00009695039444     0.00109901955189    -0.00000829961723     0.00003763002314
   23    -0.00307488018061    -0.00242538704811     0.00097510654162     0.00005402406080     0.00001224195018
   24     0.00094160380847     0.00004480574320     0.00347713568052     0.00049085215611    -0.00098656794885
   25    -0.00862945281198    -0.01462044548284     0.00859235632050     0.00037661726813    -0.00096615589974
   26     0.00054757635083     0.00160393699614     0.00172498235639     0.00003104649142     0.00005475671939
   27    -0.00091353665664    -0.00160051368120     0.00365296279494    -0.00037215368799    -0.00013170597488
   28     0.00016315181303     0.00032013183698     0.00273124695463    -0.00020973323494    -0.00043576567743
   29     0.00294899145933    -0.00116447404222    -0.00003339842708    -0.00010293453261     0.00023075073618
   30     0.00040609944729     0.00052565239423     0.00263381089656     0.00017002614413    -0.00001311307772
   31     0.00376639046408     0.00171513596425     0.00072005601694    -0.00032330756102     0.00012118323069
   32     0.00005688831832    -0.00000347584535     0.00016072306394     0.00002751307636     0.00013073723008
   33     0.00043865944863     0.00002415402873     0.00039856433858     0.00008801446560     0.00021847169431
   34     0.00001472798022     0.00000259394919     0.00005782795362    -0.00000259299081     0.00091667210934
   35     0.00002450966408     0.00000247160281     0.00003804699679     0.00000650677400     0.00003333950729
   36    -0.00000001097480    -0.00000000092298     0.00000000359936     0.00000000062703     0.00000007165136
   37    -0.00000000219420    -0.00000000008905     0.00000000096441     0.00000000035112     0.00000000441470
   38    -0.00000001360166    -0.00000000226177     0.00000000039674    -0.00000000059393     0.00000013819600
   39    -0.00000006905916    -0.00000000612771     0.00000002219535     0.00000000016523     0.00000044885518
   40    -0.00000019393013    -0.00000003091541     0.00000001044988    -0.00000001085852     0.00000237725418
   41    -0.00000000157314    -0.00000000084586    -0.00000000032609    -0.00000000085843     0.00000007279894
   42    -0.00000068848079    -0.00000007671866     0.00000012339983     0.00000000745060     0.00000540801244
   43     0.00000008009947     0.00000000772079     0.00000008716591     0.00000002484476    -0.00000007451860
   44     0.00000365568479     0.00000031885367     0.00000352218241     0.00000090713873    -0.00000157200670
   45     0.00000528265467     0.00000066013746     0.00000607312698     0.00000186458800     0.00000293506911
   46     0.00004737905238     0.00000433039787     0.00005172489104     0.00001425959219     0.00000870514781
   47     0.00000353566610     0.00000067897923     0.00000935139109     0.00000234853937     0.00000327223108
   48     0.00000113522414     0.00000202052101     0.00000250219989     0.00000046243478     0.00000051354634
   49     0.00011640700555     0.00000987450022     0.00013191621789     0.00003161158869     0.00004115149591
   50     0.00003101085708     0.00000095883957     0.00001272979545     0.00000368995030     0.00001461094982
   51     0.00011627299711     0.00000878615614     0.00013627982571     0.00002249361577     0.00006224151383
   52     0.00031536123614    -0.00002569792354    -0.00049317884812     0.00002163685193    -0.00023335525927
   53    -0.00006390406358     0.00002803553085     0.00012905110361     0.00000328480243    -0.00004022930344
   54     0.00006578136094     0.00001321396830    -0.00021325783221     0.00000450883187     0.00003450382985
   55    -0.00041360297732    -0.00003069595719    -0.00083272521270    -0.00031610122369     0.00069397418785
   56    -0.00010861365893    -0.00012622245241     0.00241836841874     0.00001963660149    -0.00002110128908
   57     0.00000186113426    -0.00001448314570     0.00018023498486     0.00000099644648     0.00001826091210
   58    -0.00001711648113    -0.00001189458758     0.00000530123938     0.00000022122052     0.00000274102605
   59     0.00180356131894     0.00256358431584     0.00126854131230     0.00016808852701    -0.00015223556295
   60    -0.00003136986305     0.00007179826929    -0.00015910393548     0.00000572709954     0.00001582142831
   61    -0.00006512252472     0.00007419990595    -0.00014055654761     0.00000822046435     0.00002441065452
   62     0.00006559073528     0.00035630058355    -0.00615514408712    -0.00019519641720    -0.00018197668160
   63    -0.00007157379012     0.00012444337288     0.00377833381043    -0.00000118661099     0.00004337047059
   64    -0.00008630491120     0.00024845521072     0.00086354249564    -0.00001377282548    -0.00001257663293
   65    -0.00002403565779    -0.00013473704950    -0.00090881702398    -0.00024208713100    -0.00002886919218
   66     0.00032560844096     0.00006650650233     0.00018981146954    -0.00002722971245    -0.00002367730629
   67     0.00014220602893     0.00014285998667     0.00001868284361     0.00000031442313     0.00000019866217
   68    -0.00016132767811    -0.00015571563556    -0.00016669946562    -0.00000249180473    -0.00001867348568
   69    -0.00006535973336     0.00022574128579     0.00078849718190    -0.00001391254066    -0.00000673350434
   70     0.00405490039824     0.00122987939964    -0.00010546820926     0.00018843481283    -0.00015116960376
   71     0.00000954156592     0.00000162351614     0.00001704495905     0.00000361900450     0.00001611469971
   72    -0.00000081384768     0.00000030953329     0.00000227145524     0.00000138106810    -0.00000351844402
   73     0.00000327894995     0.00000024466391     0.00000138737847     0.00000184660741    -0.00000387030489
   74    -0.27641237534086    -0.07975746884190     1.17175853754616     0.00965875398943     0.07485156845499
   75     0.65787547305671     0.63393325979407    -0.01499619461706    -0.00018323307733    -0.00418356304833
   76     0.00000000000000     0.01234727634975    -0.03232689155654    -0.00022909104293    -0.00442407189203
   77     0.01234727634975     0.00000000000000    -0.00737006703340     0.00004237021031    -0.00030610917736
   78    -0.03232689155654    -0.00737006703340     0.00000000000000     0.81534555577265     0.87615295210704
   79    -0.00022909104293     0.00004237021031     0.81534555577265     0.00000000000000     0.01771937835505
   80    -0.00442407189203    -0.00030610917736     0.87615295210704     0.01771937835505     0.00000000000000
   81    -0.01087705459118    -0.00391895180731     0.00107443341807    -0.00150292694158     0.00192079706030
   82    -0.00535026558344     0.00031274831875     0.00341013332015    -0.00017802283249     0.00021101954090
   83     0.00026505225088    -0.00062900287394     0.00524952764835    -0.00014394681434     0.00002846950643

                81                  82                  83

    1     0.00000193516347     0.00000002315946     0.00000008005000
    2     0.00000362900984     0.00000004380575     0.00000014962456
    3     0.00002618829532     0.00000030851475     0.00000105202536
    4     0.00002630665741     0.00000030063822     0.00000104472650
    5     0.00008299691208     0.00000099409272     0.00000336703645
    6     0.00000624552594     0.00000009359444     0.00000024611354
    7     0.00006846810248     0.00000080849068     0.00000282308994
    8     0.00000073013928     0.00000010824529     0.00000006168008
    9     0.00000022188857    -0.00000036388108     0.00000003926603
   10     0.00000759044130    -0.00000024612284     0.00000089438250
   11     0.00000435247969    -0.00000256506473     0.00000104744816
   12     0.00000467370462    -0.00000001394518    -0.00000476018734
   13     0.00013533491870     0.00000572517314     0.00001459243747
   14     0.00011457869337     0.00004143641304     0.00000119186136
   15     0.00271448857064     0.00023849667363     0.00001570910296
   16     0.00305387304869    -0.00010193097695     0.00037432471838
   17     0.01014463570129     0.00007030814141     0.00004975526475
   18     0.05286089525702     0.00054627982944     0.00313788485638
   19     0.01844445350502     0.00040316954774     0.00151001013866
   20     0.14172652866620     0.00140489475052     0.00511800949163
   21     0.06018525392327     0.00032624505971     0.00194236965960
   22     0.00538354291403    -0.00006439971190     0.00019176298926
   23     0.01553770112644     0.00154435240615     0.00110445951030
   24     0.00195060071278    -0.00185550210357    -0.00116976171549
   25    -0.00698465072116    -0.01594658386647    -0.00028352984379
   26     0.00483319509120     0.00087911071052     0.00029785797938
   27     0.25201220283466     0.00076237632865     0.00893744465702
   28     0.05997597411932     0.00196252071363     0.00250761679841
   29     0.00173270155332    -0.00008576199543     0.00073692512462
   30     0.00762192758926     0.00000723757628     0.00014530905787
   31     0.00537351641169    -0.00198842902455     0.00034751739965
   32     0.00001116543697     0.00000849688511     0.00000477797136
   33     0.00027268509500    -0.00000062293388     0.00000397110879
   34     0.00026043819124     0.00000290184893     0.00000951450122
   35     0.00015283647061     0.00000148350837     0.00000598938940
   36     0.00000032323286     0.00000000399678     0.00000001316418
   37     0.00000002027196     0.00000000019470     0.00000000081435
   38     0.00000059290240     0.00000000662960     0.00000002252266
   39     0.00000208084014     0.00000002860598     0.00000008780685
   40     0.00000972327177     0.00000011058889     0.00000038173000
   41     0.00000027563931     0.00000000297977     0.00000001077195
   42     0.00002415443112     0.00000028319545     0.00000095692067
   43     0.00000016383166     0.00000000710259     0.00000001097784
   44     0.00000049810028     0.00000002350430     0.00000007367729
   45     0.00000050047234     0.00000019946116     0.00000002025640
   46     0.00000113414002     0.00000023545517    -0.00000008132423
   47     0.00000094065896     0.00000012420319     0.00000010067289
   48    -0.00000108925078     0.00000058110242     0.00000081717570
   49     0.00000724707801     0.00000044870235    -0.00000023212810
   50     0.00000325841923    -0.00000026845324     0.00000032168082
   51     0.00000434988676     0.00000569552760     0.00000083291622
   52     0.00007750318481    -0.00000769657047    -0.00000795795692
   53     0.00001838509559    -0.00000038255527     0.00000404971784
   54     0.00272750096588     0.00007747042857     0.00016121529346
   55     0.00126192815402    -0.00141884623844    -0.00026660867791
   56     0.04388090758361     0.00036997121930     0.00160776275746
   57     0.00239942346582     0.00001814624992     0.00008303649265
   58     0.00001213274711     0.00001676081433     0.00000631172433
   59     0.00018979750990    -0.00059849201783     0.00040279032018
   60     0.00005489448705     0.00013720000773     0.00000556084415
   61     0.00035028932825     0.00031173035358     0.00002318355829
   62     0.00891468388700    -0.00030953752839     0.00017140878097
   63     0.04681961620776     0.00084457977667     0.00147583201343
   64     0.01705316672345     0.00077715096088     0.00070204562593
   65     0.01737176518032     0.00046064745292    -0.00032737743458
   66     0.00025582488695    -0.00015547366063    -0.00001516851544
   67    -0.00000436675749     0.00004341939949     0.00000749695917
   68     0.00032147045741     0.00001118844172    -0.00002319566731
   69     0.00164443793841     0.00001068611794    -0.00006155767464
   70    -0.00137271859061    -0.00148827508432    -0.00021255056955
   71     0.00008752298119     0.00000232810077     0.00000585547487
   72     0.00000115116358     0.00000099356314     0.00000208014110
   73     0.00007170909031     0.00000192093015     0.00000217083435
   74     0.30218115614655    -0.03187723832540    -0.04220677195570
   75    -0.00181945090199    -0.00123582498612     0.00051872413564
   76    -0.01087705459118    -0.00535026558344     0.00026505225088
   77    -0.00391895180731     0.00031274831875    -0.00062900287394
   78     0.00107443341807     0.00341013332015     0.00524952764835
   79    -0.00150292694158    -0.00017802283249    -0.00014394681434
   80     0.00192079706030     0.00021101954090     0.00002846950643
   81     0.00000000000000     0.80959705870731     0.91701860180563
   82     0.80959705870731     0.00000000000000     0.01136331448619
   83     0.91701860180563     0.01136331448619     0.00000000000000



  Atomic Valences: 

 #  #
 Irrep: 1
      1:    2.935918026359098
      2:    3.458438693367721
      3:    3.930791669218403
      4:    3.802458893560979
      5:    2.489816854291756
      6:    4.180441740531656
      7:    2.351622209199436
      8:    3.557037247244182
      9:    3.860734725473636
     10:    3.907819761623949
     11:    4.069979600905196
     12:    3.876607950618701
     13:    3.777200076067297
     14:    3.639722272163742
     15:    3.791150355185026
     16:    2.156820643352362
     17:    3.965815558182656
     18:    3.232902855272876
     19:    3.988227329071290
     20:    2.544498187649212
     21:    3.814423330504509
     22:    4.045965829649349
     23:    3.784725943162564
     24:    3.431124086232336
     25:    0.903637377678576
     26:    2.731847643121122
     27:    3.279679922397814
     28:    3.755440945043850
     29:    2.965488805772647
     30:    3.093002783837258
     31:    0.959035496508569
     32:    4.166782041245258
     33:    2.544107741370210
     34:    2.546774163961864
     35:    3.648657347045191
     36:    0.926597876835364
     37:    0.932596100000607
     38:    0.928490194239075
     39:    0.913009881900215
     40:    0.937855947859563
     41:    0.939813717912854
     42:    0.929015690519196
     43:    0.880169379401614
     44:    0.935395805474206
     45:    0.924669588328296
     46:    0.923248306200785
     47:    0.913414332794533
     48:    0.915416603521212
     49:    0.882143592857918
     50:    0.945681883656306
     51:    0.907892693781436
     52:    0.892093273052417
     53:    0.897007690816033
     54:    0.950654300096904
     55:    0.991761116016091
     56:    0.901390047451494
     57:    0.952887264278073
     58:    0.964952859154232
     59:    0.770278566602268
     60:    0.937929471391561
     61:    0.871152063200034
     62:    0.913771152328583
     63:    0.945607879607800
     64:    0.994720603607565
     65:    0.997563840796365
     66:    0.783919815083515
     67:    0.934913087761336
     68:    0.978881704240836
     69:    0.941776449275341
     70:    0.577292074073369
     71:    0.902477471317808
     72:    0.955630165952765
     73:    0.990550080391137
     74:    2.405718360045501
     75:    1.608322588662504
     76:    0.375842531005284
     77:    0.548293930329378
     78:    2.840266084646121
     79:    0.841391578230802
     80:    0.960412763224314
     81:    2.793612079941712
     82:    0.773527192085290
     83:    0.920223437581457



  Wiberg Bond Indices using Orthogonal Lowdin Orbitals:

  Irrep: 1 Size: 83 x 83

                 1                   2                   3                   4                   5

    1     0.00000000000000     1.17715293349316     0.10971740306093     0.02152553568585     0.00585236136366
    2     1.17715293349316     0.00000000000000     1.22913968114007     0.12749019826351     0.01966057623158
    3     0.10971740306093     1.22913968114007     0.00000000000000     0.90458864189581     0.05774428438003
    4     0.02152553568585     0.12749019826351     0.90458864189581     0.00000000000000     1.07862242396138
    5     0.00585236136366     0.01966057623158     0.05774428438003     1.07862242396138     0.00000000000000
    6     0.00086745014349     0.00255791817758     0.01214799367222     0.07637546377848     1.36406151877972
    7     0.00265608693658     0.00598503724512     0.00519271137243     0.02574290294062     0.13692959351435
    8     0.00063628714440     0.00140280170873     0.01380726686745     0.02853457103306     0.08652391915679
    9     0.00032129246647     0.00079811473167     0.00518685554932     0.00784292446500     0.03128358747795
   10     0.00046208446313     0.00098980400242     0.00738782627940     0.00857480313834     0.02682278057532
   11     0.00030640463990     0.00063355060095     0.00431245539914     0.00481335973043     0.01563748944587
   12     0.00015857279269     0.00034206169617     0.00189446751473     0.00196430017576     0.00702512470336
   13     0.00006190581335     0.00012544266716     0.00094374012930     0.00100808303856     0.00288433968603
   14     0.00002829064114     0.00006159438608     0.00030412290286     0.00030144275883     0.00109079446526
   15     0.00000640826292     0.00001385096514     0.00007314672008     0.00007341354351     0.00025438887190
   16     0.00000928455859     0.00002081495155     0.00007967669569     0.00007262122520     0.00031764763621
   17     0.00000438609862     0.00000906921483     0.00005422066381     0.00005612158323     0.00018118417469
   18     0.00000097588706     0.00000194599636     0.00001229725409     0.00001304861923     0.00004022212725
   19     0.00000084762470     0.00000168881355     0.00001054792656     0.00001115226493     0.00003461040180
   20     0.00000343285902     0.00000682407729     0.00004092428442     0.00004300293930     0.00013620867266
   21     0.00000113408520     0.00000225065977     0.00001398754625     0.00001480994869     0.00004591798620
   22     0.00000016403906     0.00000032115893     0.00000203741766     0.00000217500248     0.00000664607172
   23     0.00000008013711     0.00000015875107     0.00000094365960     0.00000099288718     0.00000314280134
   24     0.00000001667608     0.00000003536277     0.00000017765307     0.00000017140289     0.00000061163039
   25     0.00000001309232     0.00000003272837     0.00000009065025     0.00000007456264     0.00000041612674
   26     0.00000001946860     0.00000003910195     0.00000022384066     0.00000023526064     0.00000075084577
   27     0.00000014291029     0.00000028666535     0.00000158528674     0.00000164792969     0.00000541816491
   28     0.00000008307702     0.00000016557018     0.00000096529588     0.00000100634017     0.00000322619367
   29     0.00000137084923     0.00000291272112     0.00001476737920     0.00001460095834     0.00005213289409
   30     0.00000168839486     0.00000348674859     0.00001845348476     0.00001857553280     0.00006447443652
   31     0.00000019828436     0.00000042530743     0.00000200320677     0.00000194864492     0.00000726833656
   32     0.00010205615408     0.00021119342196     0.00147660242481     0.00158543588182     0.00478498724430
   33     0.00065679564044     0.00133538984440     0.00952879114886     0.01034855549561     0.02985715700844
   34     0.00163372908041     0.00337364292471     0.02345572998733     0.02500679825086     0.07526562808605
   35     0.00092960147613     0.00195082930679     0.01370269463598     0.01462093090437     0.04162670807135
   36     0.91379601989524     0.06207407429756     0.01210412008844     0.00078118346563     0.00044480601309
   37     0.91555701001879     0.05906709685201     0.00906011566018     0.00045193123423     0.00019714929951
   38     0.05824796252182     0.89473366942015     0.04280358813045     0.00437921713267     0.00079162492539
   39     0.02043428474873     0.13401965449129     0.76770490394663     0.04757964901607     0.00552773736042
   40     0.00898573781810     0.04479371928952     0.86039928096057     0.04086184836997     0.01484465604680
   41     0.00740356925847     0.01609865665219     0.03841089756531     0.90451076446559     0.03140749712637
   42     0.00083868586742     0.00593589797879     0.04278716502202     0.81533171665862     0.03506172482080
   43     0.00002110126646     0.00006828207232     0.00038790556337     0.00146559325727     0.01159420233220
   44     0.00018919843596     0.00041282048826     0.00305919873452     0.00361747374956     0.01203350212905
   45     0.00000640774277     0.00001952068271     0.00011666552072     0.00034415796411     0.00098894745115
   46     0.00007957361813     0.00015689009132     0.00145102853202     0.00164591764494     0.00454488383414
   47     0.00015509174415     0.00034846194017     0.00208320120416     0.00214145806299     0.00816776750942
   48     0.00005608664337     0.00012040900557     0.00061597402779     0.00072630174578     0.00318747072350
   49     0.00011505876372     0.00024100436105     0.00175661957760     0.00183625296743     0.00561220494296
   50     0.00001518358281     0.00003501847170     0.00013470223891     0.00014248570602     0.00075963155870
   51     0.00001708994322     0.00003807889324     0.00020893117881     0.00021198776363     0.00082715450894
   52     0.00000054748221     0.00000116328569     0.00001304100396     0.00001651077198     0.00003676496368
   53     0.00000123846186     0.00000254123842     0.00001758150303     0.00001961182516     0.00005412661463
   54     0.00000010991202     0.00000022926441     0.00000136453923     0.00000140892921     0.00000464243857
   55     0.00000019913427     0.00000040647850     0.00000242922115     0.00000251737119     0.00000803864966
   56     0.00000020486917     0.00000040975301     0.00000242764747     0.00000254320432     0.00000810718266
   57     0.00000001622684     0.00000003208914     0.00000019237750     0.00000020180588     0.00000063926263
   58     0.00000012358130     0.00000024247832     0.00000154229728     0.00000164514803     0.00000501541380
   59     0.00000001791801     0.00000003551963     0.00000021998802     0.00000022973397     0.00000071377959
   60     0.00000000328717     0.00000000644433     0.00000004445171     0.00000004516650     0.00000013690701
   61     0.00000000063740     0.00000000129469     0.00000001336242     0.00000000940973     0.00000002869291
   62     0.00000000383381     0.00000000776130     0.00000005274276     0.00000004836700     0.00000015012582
   63     0.00000001580400     0.00000003203340     0.00000016265591     0.00000016334209     0.00000057082995
   64     0.00000000132487     0.00000000267985     0.00000001933857     0.00000001617848     0.00000005258732
   65     0.00000002394733     0.00000004771571     0.00000030857745     0.00000030816501     0.00000099223817
   66     0.00000003900646     0.00000008165872     0.00000052896893     0.00000055572815     0.00000173309466
   67     0.00000011624532     0.00000023534778     0.00000135682502     0.00000139986574     0.00000458677966
   68     0.00000099424918     0.00000205218146     0.00001082124700     0.00001088268836     0.00003776468542
   69     0.00000007242745     0.00000015137854     0.00000073708145     0.00000072545431     0.00000266107459
   70     0.00000013931508     0.00000029045848     0.00000156767518     0.00000157802298     0.00000522771365
   71     0.00050846681158     0.00105729867482     0.00736017949916     0.00790303912328     0.02277011069951
   72     0.00001389311116     0.00002869218495     0.00020254244314     0.00021162388392     0.00056639883062
   73     0.00042675260994     0.00088870149131     0.00632046459401     0.00681714471112     0.02151041518965
   74     0.00000094239178     0.00000198060902     0.00001112560954     0.00001029192805     0.00003635577967
   75     0.00000005810832     0.00000012633444     0.00000057197017     0.00000055246487     0.00000209503816
   76     0.00000003436785     0.00000008342369     0.00000021203332     0.00000016184136     0.00000095236585
   77     0.00000000807393     0.00000001770646     0.00000009208473     0.00000007735034     0.00000028339970
   78     0.00000004059798     0.00000009276972     0.00000037241364     0.00000037453264     0.00000141325233
   79     0.00000001574308     0.00000003620595     0.00000015338135     0.00000012382767     0.00000054379668
   80     0.00000027831675     0.00000055780778     0.00000456350930     0.00000504163203     0.00001364384894
   81     0.00000199126716     0.00000387013108     0.00002496044918     0.00002664366531     0.00008062613522
   82     0.00000004632875     0.00000009081696     0.00000059620635     0.00000061950282     0.00000189841300
   83     0.00000010100284     0.00000019659565     0.00000128162069     0.00000134900365     0.00000410096844

                 6                   7                   8                   9                  10

    1     0.00086745014349     0.00265608693658     0.00063628714440     0.00032129246647     0.00046208446313
    2     0.00255791817758     0.00598503724512     0.00140280170873     0.00079811473167     0.00098980400242
    3     0.01214799367222     0.00519271137243     0.01380726686745     0.00518685554932     0.00738782627940
    4     0.07637546377848     0.02574290294062     0.02853457103306     0.00784292446500     0.00857480313834
    5     1.36406151877972     0.13692959351435     0.08652391915679     0.03128358747795     0.02682278057532
    6     0.00000000000000     2.04627310953420     1.20593683083385     0.07380921460230     0.01191636216707
    7     2.04627310953420     0.00000000000000     0.09363742722902     0.05343066305775     0.03488777506947
    8     1.20593683083385     0.09363742722902     0.00000000000000     1.29382035154638     0.17419141571220
    9     0.07380921460230     0.05343066305775     1.29382035154638     0.00000000000000     0.80677179398940
   10     0.01191636216707     0.03488777506947     0.17419141571220     0.80677179398940     0.00000000000000
   11     0.00415635377502     0.02415547736965     0.06219233986950     0.06467503154800     1.06769995570541
   12     0.00089053031527     0.00494847963506     0.01376600999142     0.01176169220710     0.07187610656751
   13     0.00051994705265     0.00541489196072     0.00184982485574     0.00274939415221     0.01861546395071
   14     0.00016764103541     0.00114304282141     0.00008891205966     0.00223114349348     0.02106531278237
   15     0.00003726727755     0.00030285662132     0.00003243623303     0.00040006976871     0.00367195451054
   16     0.00005241828424     0.00031576794430     0.00006029889175     0.00080867478489     0.00781167517071
   17     0.00001609202706     0.00015719853595     0.00000419192877     0.00006512609389     0.00044603561721
   18     0.00000350822245     0.00003025757688     0.00000115712301     0.00000651949287     0.00005641631760
   19     0.00000289360825     0.00002582383237     0.00000059509845     0.00000282366541     0.00001344904836
   20     0.00001119381297     0.00009738186428     0.00000191336147     0.00001116203716     0.00005441816016
   21     0.00000375647556     0.00003258957758     0.00000063708130     0.00000260348047     0.00001084379440
   22     0.00000058451411     0.00000477661260     0.00000008951153     0.00000023391141     0.00000133821552
   23     0.00000025408093     0.00000208796778     0.00000007153178     0.00000027162866     0.00000141198719
   24     0.00000009590466     0.00000040899972     0.00000015349017     0.00000084391220     0.00000632221018
   25     0.00000013925483     0.00000046287848     0.00000026993564     0.00000279318734     0.00002552054472
   26     0.00000007576626     0.00000039564715     0.00000009291794     0.00000045640327     0.00000430877291
   27     0.00000043969014     0.00000356281672     0.00000021192948     0.00000086378937     0.00000484817129
   28     0.00000027984358     0.00000229263164     0.00000013483723     0.00000046748653     0.00000232571936
   29     0.00000564201438     0.00005120733598     0.00000205640389     0.00004713325199     0.00039079851389
   30     0.00000584062787     0.00005337264239     0.00000145178497     0.00003079971303     0.00024191511020
   31     0.00000074956361     0.00000570614473     0.00000056856965     0.00000737735558     0.00006663302526
   32     0.00060319132146     0.00591495759645     0.00070452684379     0.00283784266923     0.01664677475499
   33     0.00254440282677     0.02313752418719     0.00053051217459     0.00258309513669     0.01393271773763
   34     0.00735988510892     0.07772706414065     0.00166679203640     0.00504222260053     0.01166276259360
   35     0.00442115614979     0.04946279264525     0.00087076937020     0.00338301212379     0.01303450118431
   36     0.00008351262764     0.00004389464536     0.00017054412918     0.00006596484123     0.00008462673750
   37     0.00003786535126     0.00003658580792     0.00005937934108     0.00002391984635     0.00002909611478
   38     0.00009245285785     0.00013823392208     0.00012180147507     0.00005568970099     0.00010307455013
   39     0.00242737923690     0.00619394189766     0.00116416641849     0.00047371248543     0.00062042906220
   40     0.00103052047893     0.00142706420916     0.00383889227944     0.00115486766298     0.00208864540530
   41     0.00874820246753     0.00152077137348     0.00094176419705     0.00037978376985     0.00019738361362
   42     0.01348715842385     0.01192685193950     0.01166515257048     0.00397658151599     0.00599811418697
   43     0.05621396702739     0.00942628697077     0.89324081679482     0.04421584517534     0.00427985632202
   44     0.00893554568468     0.00981598863326     0.07150199902749     0.81427571723725     0.05195938719867
   45     0.00830491671044     0.01069939676968     0.05244077541244     0.84266174457650     0.04285042040721
   46     0.00328384961517     0.02193666611210     0.01894677658907     0.04280662656251     0.77247400705850
   47     0.00114075750779     0.00108355542067     0.01803390997238     0.03880264472266     0.84210031621386
   48     0.00153854382835     0.00937573387118     0.04061653132014     0.00749712107278     0.05596022262536
   49     0.00150270599058     0.01252410642165     0.00543508654624     0.00694139207887     0.05328431271268
   50     0.00045198547817     0.00281384676913     0.01051110048984     0.00563039548053     0.00903049470953
   51     0.00006881908888     0.00008593843508     0.00166680525540     0.00080313101212     0.00883251997922
   52     0.00004845710443     0.00045514568109     0.00076774956728     0.00028553450489     0.00115776096625
   53     0.00001181022624     0.00011447593702     0.00004827828271     0.00006782706413     0.00062840423947
   54     0.00000050154127     0.00000522295181     0.00000058215746     0.00000271245242     0.00001391136477
   55     0.00000073317702     0.00000695087364     0.00000031594494     0.00000263897602     0.00001744469951
   56     0.00000066581058     0.00000549538275     0.00000021151644     0.00000086951757     0.00000404478211
   57     0.00000005807722     0.00000045081845     0.00000002073707     0.00000006542304     0.00000027730694
   58     0.00000042135588     0.00000355774051     0.00000006260579     0.00000014363452     0.00000046182643
   59     0.00000007501842     0.00000049769092     0.00000004375142     0.00000016489525     0.00000075547263
   60     0.00000002218924     0.00000009873506     0.00000002788324     0.00000006750110     0.00000016101529
   61     0.00000002262062     0.00000002044136     0.00000006010415     0.00000014493470     0.00000041935155
   62     0.00000005961447     0.00000012627171     0.00000014071102     0.00000029034904     0.00000114423927
   63     0.00000005641795     0.00000034523248     0.00000006499648     0.00000022934162     0.00000127550406
   64     0.00000001893431     0.00000004296859     0.00000005252708     0.00000012476090     0.00000045223923
   65     0.00000016085517     0.00000077647444     0.00000016959455     0.00000043800436     0.00000134730796
   66     0.00000022470191     0.00000181184346     0.00000021426052     0.00000206290533     0.00001624221296
   67     0.00000040876775     0.00000364504217     0.00000009099157     0.00000108558654     0.00000683594257
   68     0.00000339819483     0.00003121935931     0.00000081566673     0.00001776705017     0.00013744758536
   69     0.00000027186784     0.00000230211915     0.00000009086113     0.00000205049796     0.00001769631447
   70     0.00000048820995     0.00000375658098     0.00000039060255     0.00000309968979     0.00002155575025
   71     0.00208780076853     0.02240041443887     0.00035445361010     0.00155823220135     0.00502876841103
   72     0.00008584872389     0.00069523796977     0.00002429101048     0.00007694868239     0.00032902093053
   73     0.00578665568971     0.07209752215050     0.00057256360154     0.00154699126360     0.00557164000203
   74     0.00000753762531     0.00002339187873     0.00001834189948     0.00005234926811     0.00027553609331
   75     0.00000032797013     0.00000166288062     0.00000040133358     0.00000384858505     0.00003560323216
   76     0.00000061246476     0.00000213330778     0.00000047256093     0.00000930160088     0.00008601265596
   77     0.00000009933860     0.00000021939208     0.00000024068312     0.00000089263802     0.00000526752579
   78     0.00000053524848     0.00000202971727     0.00000037293080     0.00000925303453     0.00009536358679
   79     0.00000016254119     0.00000074980582     0.00000025063817     0.00000210799242     0.00001726097232
   80     0.00000144572166     0.00001266734234     0.00000067506603     0.00000565211336     0.00006922001473
   81     0.00000769424376     0.00006605868475     0.00000085731797     0.00000179996704     0.00000665248573
   82     0.00000023656364     0.00000160769777     0.00000018241955     0.00000051350335     0.00000173074808
   83     0.00000046012281     0.00000338917013     0.00000020871884     0.00000056264431     0.00000163979656

                11                  12                  13                  14                  15

    1     0.00030640463990     0.00015857279269     0.00006190581335     0.00002829064114     0.00000640826292
    2     0.00063355060095     0.00034206169617     0.00012544266716     0.00006159438608     0.00001385096514
    3     0.00431245539914     0.00189446751473     0.00094374012930     0.00030412290286     0.00007314672008
    4     0.00481335973043     0.00196430017576     0.00100808303856     0.00030144275883     0.00007341354351
    5     0.01563748944587     0.00702512470336     0.00288433968603     0.00109079446526     0.00025438887190
    6     0.00415635377502     0.00089053031527     0.00051994705265     0.00016764103541     0.00003726727755
    7     0.02415547736965     0.00494847963506     0.00541489196072     0.00114304282141     0.00030285662132
    8     0.06219233986950     0.01376600999142     0.00184982485574     0.00008891205966     0.00003243623303
    9     0.06467503154800     0.01176169220710     0.00274939415221     0.00223114349348     0.00040006976871
   10     1.06769995570541     0.07187610656751     0.01861546395071     0.02106531278237     0.00367195451054
   11     0.00000000000000     1.03250630141060     0.07886561011327     0.06112593487133     0.00729131061905
   12     1.03250630141060     0.00000000000000     0.89681460352859     0.11109555971563     0.01260624324460
   13     0.07886561011327     0.89681460352859     0.00000000000000     1.15214236628333     0.07401321095646
   14     0.06112593487133     0.11109555971563     1.15214236628333     0.00000000000000     1.33972068795632
   15     0.00729131061905     0.01260624324460     0.07401321095646     1.33972068795632     0.00000000000000
   16     0.01711145268882     0.01992499354316     0.03681591767323     0.07730044091226     1.85865303686702
   17     0.00076954116855     0.00114782098790     0.01191598213200     0.06411271162650     0.98171148136652
   18     0.00013767631566     0.00019891097519     0.00140393601762     0.00627050344364     0.05587805786465
   19     0.00001958191902     0.00002713110187     0.00038816282097     0.00114208524835     0.01024425121593
   20     0.00005970336582     0.00004272225701     0.00007848059319     0.00029190367942     0.00224948621951
   21     0.00000794617219     0.00000983975989     0.00012724056664     0.00035634619337     0.00162601833656
   22     0.00000275316027     0.00000451218386     0.00001924369956     0.00002695914028     0.00025223797838
   23     0.00000167674220     0.00000168624832     0.00000836119954     0.00002198627755     0.00025934422837
   24     0.00001514384123     0.00001576639246     0.00005241541116     0.00007705308395     0.00033948080887
   25     0.00004408385110     0.00004076749492     0.00007359206089     0.00035346758524     0.00142722701423
   26     0.00000888282211     0.00000999594638     0.00001806822856     0.00003318459586     0.00012633075476
   27     0.00000860534849     0.00000452458980     0.00002301747243     0.00006690170260     0.00037657742443
   28     0.00000523772145     0.00000538573975     0.00002904242091     0.00002198866607     0.00027766069235
   29     0.00069025431817     0.00072048653059     0.00141829492749     0.00565094686233     0.06803745331957
   30     0.00045565670834     0.00045765481088     0.00072889262325     0.00075802084750     0.01143382244526
   31     0.00013649422047     0.00013975555602     0.00024213616918     0.00082711255325     0.00584659078333
   32     0.02734448538581     0.06779514377124     0.79919628019905     0.09765411208106     0.00706940193740
   33     0.02100084163655     0.05609302425716     0.09892799227882     0.11705330685582     0.01750140486385
   34     0.01366144918135     0.01287047894132     0.06507337372150     0.02014914116185     0.00145826909992
   35     0.00936293019190     0.00422329572185     0.01548563087245     0.00793204934137     0.00058570588465
   36     0.00004853560048     0.00002337857686     0.00000992919189     0.00000386146311     0.00000090675887
   37     0.00001618322972     0.00000780429239     0.00000299149700     0.00000126343977     0.00000028922085
   38     0.00007091698448     0.00003003861396     0.00001899402343     0.00000521156090     0.00000127604434
   39     0.00039432228547     0.00018447820309     0.00009467150574     0.00003090718741     0.00000742407041
   40     0.00135141611688     0.00054991856935     0.00034333014114     0.00009322976058     0.00002310598801
   41     0.00011660446123     0.00003608355156     0.00002429387911     0.00000555674165     0.00000139317985
   42     0.00369028310656     0.00159448958815     0.00085753697708     0.00026343988256     0.00006354305888
   43     0.00175516742667     0.00051812699972     0.00009440419797     0.00003548011815     0.00000670456162
   44     0.01100073112041     0.00520858963891     0.00085756623205     0.00112682963846     0.00015609767341
   45     0.01295462862497     0.00170725306940     0.00136107658252     0.00174669442711     0.00030445941531
   46     0.04833893193572     0.01420050303586     0.00915024179291     0.01253893685871     0.00190265272022
   47     0.04482077409742     0.00944392459741     0.00261387470060     0.00378475512540     0.00043480935014
   48     0.80984949188567     0.03854474917235     0.00439148082320     0.00117486214599     0.00012477181595
   49     0.66959380240385     0.07164194882572     0.01436211485452     0.03792248648740     0.00449436400617
   50     0.04152478446137     0.87145759238158     0.04433465784489     0.00589577954004     0.00078048599821
   51     0.04606366876807     0.78091712807431     0.05881305749659     0.03772477129469     0.00573647332341
   52     0.00542540929713     0.03681082446590     0.84098970061908     0.03980744643694     0.01121404503601
   53     0.00205447380006     0.00665975278015     0.04582733104385     0.89869835675245     0.06086923672978
   54     0.00002551243665     0.00005750234519     0.00077860641965     0.00523818017480     0.04370491301386
   55     0.00003620427211     0.00005383430443     0.00021888578340     0.00084630500841     0.01168184996215
   56     0.00000590276078     0.00000522297999     0.00003459348080     0.00003636947764     0.00014599642007
   57     0.00000079282046     0.00000099844517     0.00000613261725     0.00000501975132     0.00003542424041
   58     0.00000073937260     0.00000244189371     0.00001413995663     0.00001242149189     0.00009585142661
   59     0.00000246152857     0.00000405157262     0.00002990753157     0.00002281787452     0.00031553458997
   60     0.00000130021376     0.00000232376144     0.00001614803142     0.00000338485692     0.00004333602582
   61     0.00000319308691     0.00000543980964     0.00003122055800     0.00000376343899     0.00003998500675
   62     0.00000778278271     0.00000876411180     0.00003832620164     0.00006507286012     0.00034458890927
   63     0.00000344419114     0.00000365074527     0.00001790040944     0.00000915563892     0.00007929713512
   64     0.00000252812740     0.00000459626820     0.00002873552009     0.00000540955747     0.00009762995098
   65     0.00000850203765     0.00001375532929     0.00008017182583     0.00001078424206     0.00018816338588
   66     0.00004084098191     0.00005057854282     0.00014877734045     0.00103553067184     0.00636189254260
   67     0.00001043040431     0.00001059512416     0.00003171347883     0.00005757239852     0.00069920764478
   68     0.00024870884806     0.00023568706913     0.00032871044782     0.00012993518820     0.00224884402972
   69     0.00003527248623     0.00003863440365     0.00004851182682     0.00003065571526     0.00061233647427
   70     0.00004234791294     0.00004445946208     0.00014225362000     0.00014286540651     0.00099994377912
   71     0.00283966100852     0.00132846030870     0.00473155036606     0.00181923778079     0.00021996268144
   72     0.00045349263963     0.00022999078901     0.00069479330463     0.00071634819754     0.00005154097913
   73     0.00354556157839     0.00097252505465     0.00251598628078     0.00079213141789     0.00009013213109
   74     0.00106920697574     0.00163980219237     0.00848617380840     0.01206478278268     0.06340634549472
   75     0.00007536156597     0.00007472874697     0.00017183659786     0.00055511259964     0.00295219161454
   76     0.00018943087259     0.00017437893252     0.00037221192521     0.00096851335259     0.00581588589268
   77     0.00001673211775     0.00002213521886     0.00009987501206     0.00009994128556     0.00040360089742
   78     0.00020375300951     0.00026540145839     0.00043642898078     0.00062978781221     0.00773806182785
   79     0.00004714950754     0.00005935030525     0.00013804050460     0.00004969845984     0.00068910231665
   80     0.00013434470466     0.00020861451390     0.00035022998325     0.00044335183672     0.00476935878022
   81     0.00001094101724     0.00003391673388     0.00010001524072     0.00008078295472     0.00112944542604
   82     0.00001045985563     0.00001802746981     0.00009617218193     0.00002022672835     0.00016658142074
   83     0.00000891501608     0.00001776177281     0.00011769592236     0.00002341912171     0.00058729363070

                16                  17                  18                  19                  20

    1     0.00000928455859     0.00000438609862     0.00000097588706     0.00000084762470     0.00000343285902
    2     0.00002081495155     0.00000906921483     0.00000194599636     0.00000168881355     0.00000682407729
    3     0.00007967669569     0.00005422066381     0.00001229725409     0.00001054792656     0.00004092428442
    4     0.00007262122520     0.00005612158323     0.00001304861923     0.00001115226493     0.00004300293930
    5     0.00031764763621     0.00018118417469     0.00004022212725     0.00003461040180     0.00013620867266
    6     0.00005241828424     0.00001609202706     0.00000350822245     0.00000289360825     0.00001119381297
    7     0.00031576794430     0.00015719853595     0.00003025757688     0.00002582383237     0.00009738186428
    8     0.00006029889175     0.00000419192877     0.00000115712301     0.00000059509845     0.00000191336147
    9     0.00080867478489     0.00006512609389     0.00000651949287     0.00000282366541     0.00001116203716
   10     0.00781167517071     0.00044603561721     0.00005641631760     0.00001344904836     0.00005441816016
   11     0.01711145268882     0.00076954116855     0.00013767631566     0.00001958191902     0.00005970336582
   12     0.01992499354316     0.00114782098790     0.00019891097519     0.00002713110187     0.00004272225701
   13     0.03681591767323     0.01191598213200     0.00140393601762     0.00038816282097     0.00007848059319
   14     0.07730044091226     0.06411271162650     0.00627050344364     0.00114208524835     0.00029190367942
   15     1.85865303686702     0.98171148136652     0.05587805786465     0.01024425121593     0.00224948621951
   16     0.00000000000000     0.07846953287800     0.01631463433315     0.00232724135756     0.00090894232426
   17     0.07846953287800     0.00000000000000     1.03115123823155     0.06160817841686     0.01833740582154
   18     0.01631463433315     1.03115123823155     0.00000000000000     1.11866836445365     0.10720613280201
   19     0.00232724135756     0.06160817841686     1.11866836445365     0.00000000000000     2.26974537458125
   20     0.00090894232426     0.01833740582154     0.10720613280201     2.26974537458125     0.00000000000000
   21     0.00046779915482     0.01201162924918     0.07560151775955     0.94330720285408     0.08721735156086
   22     0.00012446920057     0.00096333600255     0.00941350062729     0.07138821307282     0.01941067184337
   23     0.00025291639304     0.00036279505573     0.00514085212902     0.01167781101118     0.00635822979423
   24     0.00167913639340     0.00029709945823     0.00086766395436     0.00131426283900     0.00173709569985
   25     0.00675866442541     0.00118461380020     0.00249409083714     0.00092476963351     0.00124450447316
   26     0.00068694630557     0.00007253354189     0.00056122903197     0.00049343789199     0.00068035999394
   27     0.00044122489669     0.00260376080810     0.03654290694088     0.05666244054079     0.07956617650056
   28     0.00028260392112     0.00057677512295     0.00676897666152     0.01246975309244     0.01812384723228
   29     0.01949477434416     0.92355820398107     0.05025224016747     0.00641463939717     0.00324708466080
   30     0.00414156451114     0.06281563585283     0.00595614143345     0.00569322884751     0.00928145599405
   31     0.00733225707857     0.04809803371994     0.01925627479111     0.00299342810303     0.00213542003532
   32     0.01031397239943     0.00112464324373     0.00021663632135     0.00007816502286     0.00004329974165
   33     0.03290678443810     0.00101012051974     0.00043344634477     0.00010391494155     0.00013382943492
   34     0.00427118441394     0.00021091972516     0.00008204851660     0.00005415058006     0.00023037600269
   35     0.00162877122165     0.00014002957633     0.00006117248662     0.00004454279363     0.00014195574322
   36     0.00000115246501     0.00000063285052     0.00000013787269     0.00000011914965     0.00000046994095
   37     0.00000038938800     0.00000019929655     0.00000004368036     0.00000003775099     0.00000014991325
   38     0.00000118345918     0.00000100000460     0.00000023738492     0.00000020205734     0.00000077892832
   39     0.00000817423712     0.00000553494105     0.00000126025761     0.00000107839976     0.00000419403457
   40     0.00002106190044     0.00001789316238     0.00000419651521     0.00000358211097     0.00001376106506
   41     0.00000111119653     0.00000108942830     0.00000026111472     0.00000022218106     0.00000085018732
   42     0.00006616680235     0.00004794463625     0.00001099426931     0.00000941932568     0.00003652624711
   43     0.00001307146186     0.00000191887097     0.00000018839319     0.00000013938786     0.00000049766486
   44     0.00039890640180     0.00002612279135     0.00000326305466     0.00000127225969     0.00000559635412
   45     0.00066677348168     0.00004357703508     0.00000454897549     0.00000161621748     0.00000727174188
   46     0.00463967776976     0.00025527820166     0.00003092778615     0.00000776153593     0.00003393524162
   47     0.00125160466085     0.00006541742870     0.00000934055080     0.00000272491849     0.00001282868933
   48     0.00029574279050     0.00001474880946     0.00000368698004     0.00000259160689     0.00000202158351
   49     0.01246215399683     0.00038763555524     0.00008549700213     0.00000771890735     0.00004117996242
   50     0.00150754380584     0.00004882671165     0.00001630128113     0.00000216403019     0.00000287278921
   51     0.00977637615393     0.00060981377056     0.00006680327976     0.00001990026215     0.00000918525317
   52     0.01424573324462     0.00165278825352     0.00016344084190     0.00009684663274     0.00001090671294
   53     0.00928054145244     0.00758188018160     0.00073344527593     0.00012794176175     0.00007172145610
   54     0.00837894334381     0.87628451616336     0.03135952749987     0.00785086804384     0.00788069808670
   55     0.00681307373685     0.04286688839545     0.90475944050191     0.05175844583906     0.01911816636094
   56     0.00012360663055     0.00132202659471     0.01355211662843     0.04874150303815     0.02106937804524
   57     0.00001731812707     0.00010119148817     0.00151256325112     0.00929930498704     0.00890033111176
   58     0.00002603871412     0.00038741207296     0.00124398813508     0.00981957655875     0.00277561944964
   59     0.00022076291312     0.00030680962201     0.00261692960613     0.00749414088233     0.00315500432261
   60     0.00001378610694     0.00003531738334     0.00041175656341     0.00054631687880     0.00016298537866
   61     0.00005550425846     0.00001327574833     0.00003479492744     0.00008466333858     0.00009406522767
   62     0.00027270169645     0.00079374355811     0.00832082613721     0.00601318115147     0.00489453772550
   63     0.00006473445056     0.00024037349117     0.00410859467954     0.00317290487215     0.01268911220580
   64     0.00009531570774     0.00014729085446     0.00171833447727     0.00095040234706     0.00461007521754
   65     0.00013382502453     0.00013618076524     0.00040965915808     0.00182706060408     0.00170505158484
   66     0.00185732549201     0.05014337802627     0.00753033918729     0.00075461030175     0.00055502191854
   67     0.00012961527878     0.00442632022307     0.00079078847890     0.00562387400939     0.01537386380971
   68     0.00102699132560     0.01785067977174     0.00159142169951     0.00064044541402     0.00124963271718
   69     0.00034597433308     0.00735574528581     0.00140576300049     0.00041211084363     0.00082369458344
   70     0.00115141527348     0.01128858482640     0.00933154038079     0.00069807115671     0.00111540255002
   71     0.00049454983717     0.00002304065043     0.00002756868763     0.00002576304242     0.00007418527481
   72     0.00015641390702     0.00001334896628     0.00000220439122     0.00000251583212     0.00000269497699
   73     0.00017768596959     0.00002341599934     0.00001822223545     0.00001449380443     0.00006056980896
   74     0.39591095755295     0.05702743918501     0.35768310221372     0.06013339131268     0.03511229546932
   75     0.01945459202963     0.00066305583754     0.00225000017985     0.00120969960032     0.00095200564053
   76     0.04649200358463     0.00131144845820     0.00104656645203     0.00032205754346     0.00029585106841
   77     0.00206987073906     0.00008840720650     0.00021676740297     0.00022132743760     0.00019038280044
   78     0.02630479729018     0.00161539219751     0.00730199432091     0.00214777975012     0.00621691270837
   79     0.00149703869527     0.00010785674264     0.00024503848707     0.00015837979380     0.00016710992807
   80     0.03877931612179     0.00060479014868     0.00067153688276     0.00013419739518     0.00021204156199
   81     0.00392237060565     0.00258957661763     0.05105980606587     0.02165167824177     0.13445966476862
   82     0.00032585575144     0.00011558109533     0.00126914280752     0.00059353760748     0.00307326753481
   83     0.00047793131022     0.00031650337303     0.00299055148113     0.00128316232786     0.00642593728193

                21                  22                  23                  24                  25

    1     0.00000113408520     0.00000016403906     0.00000008013711     0.00000001667608     0.00000001309232
    2     0.00000225065977     0.00000032115893     0.00000015875107     0.00000003536277     0.00000003272837
    3     0.00001398754625     0.00000203741766     0.00000094365960     0.00000017765307     0.00000009065025
    4     0.00001480994869     0.00000217500248     0.00000099288718     0.00000017140289     0.00000007456264
    5     0.00004591798620     0.00000664607172     0.00000314280134     0.00000061163039     0.00000041612674
    6     0.00000375647556     0.00000058451411     0.00000025408093     0.00000009590466     0.00000013925483
    7     0.00003258957758     0.00000477661260     0.00000208796778     0.00000040899972     0.00000046287848
    8     0.00000063708130     0.00000008951153     0.00000007153178     0.00000015349017     0.00000026993564
    9     0.00000260348047     0.00000023391141     0.00000027162866     0.00000084391220     0.00000279318734
   10     0.00001084379440     0.00000133821552     0.00000141198719     0.00000632221018     0.00002552054472
   11     0.00000794617219     0.00000275316027     0.00000167674220     0.00001514384123     0.00004408385110
   12     0.00000983975989     0.00000451218386     0.00000168624832     0.00001576639246     0.00004076749492
   13     0.00012724056664     0.00001924369956     0.00000836119954     0.00005241541116     0.00007359206089
   14     0.00035634619337     0.00002695914028     0.00002198627755     0.00007705308395     0.00035346758524
   15     0.00162601833656     0.00025223797838     0.00025934422837     0.00033948080887     0.00142722701423
   16     0.00046779915482     0.00012446920057     0.00025291639304     0.00167913639340     0.00675866442541
   17     0.01201162924918     0.00096333600255     0.00036279505573     0.00029709945823     0.00118461380020
   18     0.07560151775955     0.00941350062729     0.00514085212902     0.00086766395436     0.00249409083714
   19     0.94330720285408     0.07138821307282     0.01167781101118     0.00131426283900     0.00092476963351
   20     0.08721735156086     0.01941067184337     0.00635822979423     0.00173709569985     0.00124450447316
   21     0.00000000000000     0.99912417389381     0.05110555552920     0.00534707875767     0.00170551161658
   22     0.99912417389381     0.00000000000000     0.97999318990568     0.07756778876680     0.00579336359467
   23     0.05110555552920     0.97999318990568     0.00000000000000     1.07269195533022     0.06714461289352
   24     0.00534707875767     0.07756778876680     1.07269195533022     0.00000000000000     1.31098520431549
   25     0.00170551161658     0.00579336359467     0.06714461289352     1.31098520431549     0.00000000000000
   26     0.00160670115373     0.02190859582093     0.07587002317691     1.84455533932946     0.09710440643959
   27     1.08430252759920     0.04990628886414     0.01260053239228     0.00412167285761     0.01528694938043
   28     0.06534022656017     0.01453546427342     0.00198798064686     0.00817035182021     0.00233891324438
   29     0.00107940062551     0.00049649049575     0.00117033904282     0.00062627362730     0.00316583150673
   30     0.00100977530376     0.00074347996648     0.00447716249197     0.00060984999600     0.00145896176231
   31     0.00121928843370     0.00120566703803     0.00962563271565     0.00423083095505     0.01917381075415
   32     0.00002944721443     0.00000868723973     0.00000394946242     0.00004134476653     0.00002352861380
   33     0.00011119347842     0.00003034069522     0.00000555981487     0.00001701356324     0.00007449507383
   34     0.00006645526507     0.00001696637021     0.00000609850111     0.00001102658139     0.00001363736653
   35     0.00005321073954     0.00001158573280     0.00000429587777     0.00001537472866     0.00000814786300
   36     0.00000015834844     0.00000002271006     0.00000001086844     0.00000000222288     0.00000000173972
   37     0.00000005027719     0.00000000720832     0.00000000348647     0.00000000072933     0.00000000060730
   38     0.00000026840387     0.00000004007918     0.00000001785886     0.00000000286982     0.00000000117168
   39     0.00000142597309     0.00000021022860     0.00000009676395     0.00000002209225     0.00000000907584
   40     0.00000475168003     0.00000070393359     0.00000031633820     0.00000005125660     0.00000001866967
   41     0.00000029443649     0.00000004453206     0.00000001950592     0.00000000307415     0.00000000141255
   42     0.00001249103517     0.00000182990518     0.00000083984281     0.00000014432527     0.00000006550249
   43     0.00000015241006     0.00000001589892     0.00000001117074     0.00000001348142     0.00000004520598
   44     0.00000131381921     0.00000012979275     0.00000013933073     0.00000042761765     0.00000120462446
   45     0.00000150438473     0.00000012481780     0.00000016055708     0.00000051954233     0.00000196304654
   46     0.00000643252461     0.00000062440490     0.00000077985756     0.00000350786522     0.00001315161438
   47     0.00000240436636     0.00000018615531     0.00000024903733     0.00000076844114     0.00000255153218
   48     0.00000065623976     0.00000029908834     0.00000035215461     0.00000680631077     0.00000421557027
   49     0.00000397295912     0.00000176787866     0.00000105023198     0.00000817982079     0.00003246071168
   50     0.00000227117299     0.00000040343611     0.00000019842284     0.00000090037684     0.00000327490782
   51     0.00000504681396     0.00000326718973     0.00000219857918     0.00003143992015     0.00003417952720
   52     0.00001860678541     0.00000363135794     0.00001255372962     0.00006940321126     0.00010143726313
   53     0.00003529108815     0.00000450543271     0.00000421816440     0.00001373797497     0.00004333801279
   54     0.00107048695452     0.00020543346441     0.00017655092270     0.00008190995029     0.00018297483168
   55     0.00584717392996     0.00090228297634     0.00028857960475     0.00079448599685     0.00141790923172
   56     0.78641719276699     0.04638225610007     0.00537761447276     0.00112432292458     0.00025865446323
   57     0.05005419681411     0.87489389182717     0.04397519851858     0.01097938179632     0.00095392953729
   58     0.04192187160773     0.89642068253878     0.03790758288497     0.00784657443502     0.00056518157005
   59     0.00599075901303     0.04007162054021     0.88678113098156     0.05931293292191     0.01054600929181
   60     0.00861607122981     0.04580792113125     0.85383319130574     0.05942109793842     0.00730210675614
   61     0.00009623241488     0.00082248228813     0.00965934590683     0.07386474727524     0.00949670891937
   62     0.05161841033864     0.00934873229380     0.00071846792886     0.00165483896914     0.00639060924626
   63     0.01167631174226     0.00154425732113     0.00061279615695     0.00048420924315     0.00042664607573
   64     0.00659948349306     0.00685662163895     0.00080707764126     0.00979922401424     0.00230680540332
   65     0.01219983251495     0.00093439096263     0.00011891603209     0.00077709414947     0.00064728594733
   66     0.00018501273022     0.00007544128538     0.00033440484287     0.00023152076911     0.00057108044498
   67     0.00055820548118     0.00039791695621     0.00297674940347     0.00036258694522     0.00015259759577
   68     0.00020874503744     0.00010616820449     0.00011773299563     0.00004354742428     0.00015701945782
   69     0.00019760685523     0.00012820468349     0.00059658108064     0.00013516555927     0.00042969787198
   70     0.00030413420790     0.00048486993910     0.00138804423163     0.00254857867666     0.00202645375312
   71     0.00002901451731     0.00000633321068     0.00000290900277     0.00001959583180     0.00000513719617
   72     0.00000104546941     0.00000032871203     0.00000035953151     0.00000452169085     0.00000108617276
   73     0.00002024758863     0.00000449687515     0.00000153037730     0.00000144449551     0.00000168167215
   74     0.04153670774888     0.01024753180992     0.06094215105907     0.17234541011323     0.72768601323094
   75     0.00102904385938     0.00031344302194     0.00158327576184     0.01477011113951     0.10152561983996
   76     0.00009119851084     0.00004101094056     0.00019763306212     0.00061490214227     0.00285936317209
   77     0.00021581121675     0.00004062547574     0.00010456403846     0.00136105577527     0.00426366102747
   78     0.00495350379611     0.00081483662436     0.00150600470906     0.00349319844167     0.01919204997123
   79     0.00017342612252     0.00006693441302     0.00012372375470     0.00080117310390     0.00101549572825
   80     0.00020340694140     0.00006523587066     0.00026902669501     0.00046008755237     0.00132405703232
   81     0.05385493008123     0.01046398681169     0.00987670644627     0.00365435018174     0.01132902939242
   82     0.00128877447111     0.00028006329724     0.00055749298127     0.00199931401454     0.01264860853133
   83     0.00261503418188     0.00049526484273     0.00055613805146     0.00041662629189     0.00151740953231

                26                  27                  28                  29                  30

    1     0.00000001946860     0.00000014291029     0.00000008307702     0.00000137084923     0.00000168839486
    2     0.00000003910195     0.00000028666535     0.00000016557018     0.00000291272112     0.00000348674859
    3     0.00000022384066     0.00000158528674     0.00000096529588     0.00001476737920     0.00001845348476
    4     0.00000023526064     0.00000164792969     0.00000100634017     0.00001460095834     0.00001857553280
    5     0.00000075084577     0.00000541816491     0.00000322619367     0.00005213289409     0.00006447443652
    6     0.00000007576626     0.00000043969014     0.00000027984358     0.00000564201438     0.00000584062787
    7     0.00000039564715     0.00000356281672     0.00000229263164     0.00005120733598     0.00005337264239
    8     0.00000009291794     0.00000021192948     0.00000013483723     0.00000205640389     0.00000145178497
    9     0.00000045640327     0.00000086378937     0.00000046748653     0.00004713325199     0.00003079971303
   10     0.00000430877291     0.00000484817129     0.00000232571936     0.00039079851389     0.00024191511020
   11     0.00000888282211     0.00000860534849     0.00000523772145     0.00069025431817     0.00045565670834
   12     0.00000999594638     0.00000452458980     0.00000538573975     0.00072048653059     0.00045765481088
   13     0.00001806822856     0.00002301747243     0.00002904242091     0.00141829492749     0.00072889262325
   14     0.00003318459586     0.00006690170260     0.00002198866607     0.00565094686233     0.00075802084750
   15     0.00012633075476     0.00037657742443     0.00027766069235     0.06803745331957     0.01143382244526
   16     0.00068694630557     0.00044122489669     0.00028260392112     0.01949477434416     0.00414156451114
   17     0.00007253354189     0.00260376080810     0.00057677512295     0.92355820398107     0.06281563585283
   18     0.00056122903197     0.03654290694088     0.00676897666152     0.05025224016747     0.00595614143345
   19     0.00049343789199     0.05666244054079     0.01246975309244     0.00641463939717     0.00569322884751
   20     0.00068035999394     0.07956617650056     0.01812384723228     0.00324708466080     0.00928145599405
   21     0.00160670115373     1.08430252759920     0.06534022656017     0.00107940062551     0.00100977530376
   22     0.02190859582093     0.04990628886414     0.01453546427342     0.00049649049575     0.00074347996648
   23     0.07587002317691     0.01260053239228     0.00198798064686     0.00117033904282     0.00447716249197
   24     1.84455533932946     0.00412167285761     0.00817035182021     0.00062627362730     0.00060984999600
   25     0.09710440643959     0.01528694938043     0.00233891324438     0.00316583150673     0.00145896176231
   26     0.00000000000000     0.00072017401913     0.00491124717423     0.00025390308882     0.00035697318921
   27     0.00072017401913     0.00000000000000     1.06555844406253     0.00065148044016     0.00125269126601
   28     0.00491124717423     1.06555844406253     0.00000000000000     0.00038990076565     0.00052439132383
   29     0.00025390308882     0.00065148044016     0.00038990076565     0.00000000000000     1.18679657458072
   30     0.00035697318921     0.00125269126601     0.00052439132383     1.18679657458072     0.00000000000000
   31     0.00080521153519     0.00140368056400     0.00129994814212     0.84494170740207     0.07743074376693
   32     0.00001079634041     0.00000852117138     0.00002572281678     0.00028556468302     0.00024287081905
   33     0.00001865951675     0.00000624224177     0.00000390569518     0.00093684983160     0.00042888816523
   34     0.00000528292708     0.00000953725445     0.00001023350435     0.00012876958816     0.00009259478287
   35     0.00000415089194     0.00000593152381     0.00001104070537     0.00004407224973     0.00004179290491
   36     0.00000000262731     0.00000001895544     0.00000001118223     0.00000018658057     0.00000022579346
   37     0.00000000085931     0.00000000617657     0.00000000359119     0.00000005984076     0.00000007278330
   38     0.00000000415409     0.00000002845569     0.00000001798209     0.00000025466850     0.00000033018112
   39     0.00000002336852     0.00000016573739     0.00000010105570     0.00000151201504     0.00000191739353
   40     0.00000007317476     0.00000051310003     0.00000031951474     0.00000456975314     0.00000586889079
   41     0.00000000444447     0.00000003097298     0.00000001959642     0.00000026769504     0.00000034632705
   42     0.00000019513239     0.00000139968457     0.00000085277459     0.00001283859860     0.00001620243284
   43     0.00000000846389     0.00000002853150     0.00000001499805     0.00000091917415     0.00000077558980
   44     0.00000024964885     0.00000045476500     0.00000028056132     0.00001964013863     0.00001474858196
   45     0.00000035153671     0.00000060336090     0.00000025951601     0.00003691857113     0.00002396244480
   46     0.00000248939233     0.00000275697402     0.00000134296562     0.00022289961980     0.00014799987286
   47     0.00000058828079     0.00000077490987     0.00000042026760     0.00005903381767     0.00004524342803
   48     0.00000093671612     0.00000066444509     0.00000331027155     0.00001132420651     0.00000724959340
   49     0.00000640116451     0.00000524784242     0.00000233609645     0.00046552478840     0.00031512725635
   50     0.00000082314693     0.00000035182265     0.00000013122427     0.00004665466436     0.00002852736041
   51     0.00000966270233     0.00000303371778     0.00001671175160     0.00052690897444     0.00023032412362
   52     0.00002287284598     0.00001801618452     0.00007878766665     0.00020839548628     0.00011144793082
   53     0.00000717639904     0.00000620264260     0.00000914567642     0.00044036229629     0.00008127293741
   54     0.00004894605627     0.00124856521947     0.00031504182316     0.03764262402784     0.00792445977184
   55     0.00010270385461     0.00922376287868     0.00150985992411     0.00828957376843     0.00102901783481
   56     0.00038360486967     0.03848577333057     0.00957651977411     0.00060516716645     0.00057542612718
   57     0.00151768492417     0.01251065823921     0.00091939852978     0.00003535522273     0.00005236751560
   58     0.00336509882605     0.00375834723114     0.00613883486993     0.00010972279188     0.00032798004667
   59     0.01336876677705     0.00168454778334     0.00035864127091     0.00358664089078     0.01436784783518
   60     0.01564529247447     0.00186926675095     0.00023739156701     0.00011326987212     0.00014349141468
   61     0.96956475475651     0.00007241882187     0.00033855969718     0.00003462520689     0.00004723832982
   62     0.00012457841024     0.92053462894166     0.04569277540161     0.00094560748214     0.00015120388268
   63     0.00028899312998     0.03611754615228     0.82473044366118     0.00014075989259     0.00029035694193
   64     0.00823630275742     0.03354863928009     0.89668673710404     0.00013315501718     0.00010220074205
   65     0.00034425295517     0.03894490573555     0.92013804968172     0.00021727321022     0.00003708993983
   66     0.00006428188254     0.00008444443458     0.00013847164402     0.86003753829168     0.05681454808283
   67     0.00018827693578     0.00008480839342     0.00006681243612     0.05388022659362     0.91361547019921
   68     0.00003954305160     0.00029677032652     0.00014848641715     0.09057579244567     0.80408961875874
   69     0.00008453322383     0.00027010833283     0.00014421480602     0.08194394612027     0.82679037390061
   70     0.00028874500743     0.00027804895042     0.00046880457088     0.12003536019543     0.04551671368580
   71     0.00000346040778     0.00000394862470     0.00001212728904     0.00000891004703     0.00000460748794
   72     0.00000074847770     0.00000050487449     0.00000268580660     0.00000643298862     0.00000518124907
   73     0.00000077081257     0.00000204742776     0.00000192465321     0.00000530399315     0.00000700866594
   74     0.03715763776466     0.31071957348336     0.08120041662779     0.13848351278302     0.02034311557515
   75     0.00578031765388     0.00504940879735     0.00184187869733     0.00251133985038     0.00116568078912
   76     0.00034835087016     0.00051359780280     0.00028779705247     0.00079852125205     0.00024153234371
   77     0.00069048574764     0.00106804014871     0.00048332847809     0.00032859050604     0.00019856506840
   78     0.00187466228918     0.02696687081486     0.00403905219576     0.00214091222203     0.00166127781748
   79     0.00016876630268     0.00078203512162     0.00037120494315     0.00028337315743     0.00008460731549
   80     0.00013268891655     0.00101812781878     0.00040663996627     0.00049227702371     0.00011362952208
   81     0.00437815854017     0.20845529689744     0.06651921959232     0.00410529435936     0.00527899426884
   82     0.00028497523477     0.00453197565435     0.00193679483086     0.00021129888758     0.00017388383008
   83     0.00034011273078     0.01110429484753     0.00343608675254     0.00038010374906     0.00025361449193

                31                  32                  33                  34                  35

    1     0.00000019828436     0.00010205615408     0.00065679564044     0.00163372908041     0.00092960147613
    2     0.00000042530743     0.00021119342196     0.00133538984440     0.00337364292471     0.00195082930679
    3     0.00000200320677     0.00147660242481     0.00952879114886     0.02345572998733     0.01370269463598
    4     0.00000194864492     0.00158543588182     0.01034855549561     0.02500679825086     0.01462093090437
    5     0.00000726833656     0.00478498724430     0.02985715700844     0.07526562808605     0.04162670807135
    6     0.00000074956361     0.00060319132146     0.00254440282677     0.00735988510892     0.00442115614979
    7     0.00000570614473     0.00591495759645     0.02313752418719     0.07772706414065     0.04946279264525
    8     0.00000056856965     0.00070452684379     0.00053051217459     0.00166679203640     0.00087076937020
    9     0.00000737735558     0.00283784266923     0.00258309513669     0.00504222260053     0.00338301212379
   10     0.00006663302526     0.01664677475499     0.01393271773763     0.01166276259360     0.01303450118431
   11     0.00013649422047     0.02734448538581     0.02100084163655     0.01366144918135     0.00936293019190
   12     0.00013975555602     0.06779514377124     0.05609302425716     0.01287047894132     0.00422329572185
   13     0.00024213616918     0.79919628019905     0.09892799227882     0.06507337372150     0.01548563087245
   14     0.00082711255325     0.09765411208106     0.11705330685582     0.02014914116185     0.00793204934137
   15     0.00584659078333     0.00706940193740     0.01750140486385     0.00145826909992     0.00058570588465
   16     0.00733225707857     0.01031397239943     0.03290678443810     0.00427118441394     0.00162877122165
   17     0.04809803371994     0.00112464324373     0.00101012051974     0.00021091972516     0.00014002957633
   18     0.01925627479111     0.00021663632135     0.00043344634477     0.00008204851660     0.00006117248662
   19     0.00299342810303     0.00007816502286     0.00010391494155     0.00005415058006     0.00004454279363
   20     0.00213542003532     0.00004329974165     0.00013382943492     0.00023037600269     0.00014195574322
   21     0.00121928843370     0.00002944721443     0.00011119347842     0.00006645526507     0.00005321073954
   22     0.00120566703803     0.00000868723973     0.00003034069522     0.00001696637021     0.00001158573280
   23     0.00962563271565     0.00000394946242     0.00000555981487     0.00000609850111     0.00000429587777
   24     0.00423083095505     0.00004134476653     0.00001701356324     0.00001102658139     0.00001537472866
   25     0.01917381075415     0.00002352861380     0.00007449507383     0.00001363736653     0.00000814786300
   26     0.00080521153519     0.00001079634041     0.00001865951675     0.00000528292708     0.00000415089194
   27     0.00140368056400     0.00000852117138     0.00000624224177     0.00000953725445     0.00000593152381
   28     0.00129994814212     0.00002572281678     0.00000390569518     0.00001023350435     0.00001104070537
   29     0.84494170740207     0.00028556468302     0.00093684983160     0.00012876958816     0.00004407224973
   30     0.07743074376693     0.00024287081905     0.00042888816523     0.00009259478287     0.00004179290491
   31     0.00000000000000     0.00007235768412     0.00018782732629     0.00003146806888     0.00001141410753
   32     0.00007235768412     0.00000000000000     2.22612117327123     1.36464585707212     0.08302677726270
   33     0.00018782732629     2.22612117327123     0.00000000000000     0.11463342788675     0.06939512924014
   34     0.00003146806888     1.36464585707212     0.11463342788675     0.00000000000000     1.15332448711260
   35     0.00001141410753     0.08302677726270     0.06939512924014     1.15332448711260     0.00000000000000
   36     0.00000002620683     0.00001581353916     0.00010111005314     0.00025391540907     0.00014641041857
   37     0.00000000859413     0.00000490844401     0.00003152334482     0.00007856754546     0.00004526292635
   38     0.00000003289626     0.00002856025717     0.00018366269559     0.00044961458869     0.00026248035009
   39     0.00000020484112     0.00015292426346     0.00093478874861     0.00240650276054     0.00139114104719
   40     0.00000059186453     0.00051243715251     0.00330275121318     0.00813556410192     0.00474137680822
   41     0.00000003273714     0.00003397492065     0.00021687875617     0.00052107480594     0.00030341487593
   42     0.00000170520870     0.00132409420578     0.00861252274450     0.02099596683596     0.01218682624900
   43     0.00000013935062     0.00009932624210     0.00007072611613     0.00031171488922     0.00021954702914
   44     0.00000386624960     0.00282965384884     0.00860403284907     0.00176464909946     0.00086524647458
   45     0.00000597604657     0.00084806885215     0.00090926809712     0.00268018533284     0.00224613550712
   46     0.00003983288523     0.01451271636226     0.00875313808509     0.01490921801564     0.00827531172499
   47     0.00001123883989     0.00229760822456     0.00264797360061     0.00264876971774     0.00225433996832
   48     0.00000280819750     0.00108085817620     0.00076275381685     0.00073643445274     0.00065462982665
   49     0.00009419971893     0.01410339329666     0.01405602422251     0.00825544605213     0.00649554042298
   50     0.00000731677533     0.00578210424685     0.00804021761785     0.00213102638777     0.00110011690767
   51     0.00009090947480     0.00352521149860     0.01261010419372     0.00295994821463     0.00069025329265
   52     0.00008638352335     0.04479396966669     0.00693824366235     0.01194489551768     0.00313916887996
   53     0.00010868664590     0.00607308262307     0.00710699004920     0.00063037151380     0.00040119232195
   54     0.00536872624242     0.00005654127339     0.00003138163284     0.00001346545687     0.00000899641637
   55     0.00417765534307     0.00012605387524     0.00006432063613     0.00003053211284     0.00003257419419
   56     0.00035105748794     0.00001566917098     0.00000852412286     0.00001265137173     0.00001240517067
   57     0.00006455893721     0.00000427589390     0.00000126002150     0.00000238364369     0.00000222390599
   58     0.00047674956347     0.00000674963130     0.00001846306338     0.00001142058650     0.00000882517991
   59     0.02258300844197     0.00002045424707     0.00000341840142     0.00000611882314     0.00000764973657
   60     0.00043527353229     0.00001201952960     0.00000085744587     0.00000297969244     0.00000455919527
   61     0.00010007883032     0.00002582012897     0.00000109576312     0.00000593640231     0.00000925020935
   62     0.00291345603969     0.00004844474823     0.00000562611962     0.00001213834647     0.00001831933668
   63     0.00025838361960     0.00001009564522     0.00000103501573     0.00000303199088     0.00000408708138
   64     0.00047675937554     0.00001915158981     0.00000106930998     0.00000478866854     0.00000717046421
   65     0.00037771365066     0.00006209896442     0.00000237387898     0.00001633238165     0.00002492093362
   66     0.04917991402538     0.00006682070056     0.00006502752224     0.00001253550949     0.00001643040823
   67     0.00601936334546     0.00001656119198     0.00001164554161     0.00000645481904     0.00000660547624
   68     0.01128818881604     0.00014315412191     0.00022885527667     0.00005170835291     0.00002522044325
   69     0.02211644003664     0.00002221798330     0.00004265770806     0.00000658220675     0.00000317043807
   70     1.03829867327323     0.00011236402956     0.00004327897279     0.00002572291388     0.00003718053950
   71     0.00000272923127     0.01457221182054     0.02015670550181     0.06106488502792     0.73288913404100
   72     0.00000159769456     0.00938075166232     0.00273603890404     0.03246711127053     0.93614423303179
   73     0.00000083813709     0.01213480610150     0.02200899484293     0.05219206657449     0.77254116299922
   74     0.57085202520240     0.00454059818874     0.00069928493765     0.00164711977674     0.00192573590061
   75     0.01620207150103     0.00006706682050     0.00012068004243     0.00002182199091     0.00001893268577
   76     0.00236046856426     0.00012689679336     0.00034544910087     0.00004023723656     0.00004273115285
   77     0.00162109574726     0.00009229698221     0.00001511077321     0.00002210870777     0.00003172720978
   78     0.00874947052771     0.00020182847890     0.00043259642151     0.00010533275941     0.00005169772209
   79     0.00032884459781     0.00009963746897     0.00007435957954     0.00002978435716     0.00003497657370
   80     0.00094769107765     0.00018139019662     0.00031497435697     0.00036021715463     0.00007477887747
   81     0.01252413637392     0.00007422897131     0.00025713024545     0.00025151858964     0.00015581398625
   82     0.00111110160468     0.00006972537802     0.00000914193200     0.00002093951521     0.00002758803858
   83     0.00101387055454     0.00007770839515     0.00001343379257     0.00002980553884     0.00003524436737

                36                  37                  38                  39                  40

    1     0.91379601989524     0.91555701001879     0.05824796252182     0.02043428474873     0.00898573781810
    2     0.06207407429756     0.05906709685201     0.89473366942015     0.13401965449129     0.04479371928952
    3     0.01210412008844     0.00906011566018     0.04280358813045     0.76770490394663     0.86039928096057
    4     0.00078118346563     0.00045193123423     0.00437921713267     0.04757964901607     0.04086184836997
    5     0.00044480601309     0.00019714929951     0.00079162492539     0.00552773736042     0.01484465604680
    6     0.00008351262764     0.00003786535126     0.00009245285785     0.00242737923690     0.00103052047893
    7     0.00004389464536     0.00003658580792     0.00013823392208     0.00619394189766     0.00142706420916
    8     0.00017054412918     0.00005937934108     0.00012180147507     0.00116416641849     0.00383889227944
    9     0.00006596484123     0.00002391984635     0.00005568970099     0.00047371248543     0.00115486766298
   10     0.00008462673750     0.00002909611478     0.00010307455013     0.00062042906220     0.00208864540530
   11     0.00004853560048     0.00001618322972     0.00007091698448     0.00039432228547     0.00135141611688
   12     0.00002337857686     0.00000780429239     0.00003003861396     0.00018447820309     0.00054991856935
   13     0.00000992919189     0.00000299149700     0.00001899402343     0.00009467150574     0.00034333014114
   14     0.00000386146311     0.00000126343977     0.00000521156090     0.00003090718741     0.00009322976058
   15     0.00000090675887     0.00000028922085     0.00000127604434     0.00000742407041     0.00002310598801
   16     0.00000115246501     0.00000038938800     0.00000118345918     0.00000817423712     0.00002106190044
   17     0.00000063285052     0.00000019929655     0.00000100000460     0.00000553494105     0.00001789316238
   18     0.00000013787269     0.00000004368036     0.00000023738492     0.00000126025761     0.00000419651521
   19     0.00000011914965     0.00000003775099     0.00000020205734     0.00000107839976     0.00000358211097
   20     0.00000046994095     0.00000014991325     0.00000077892832     0.00000419403457     0.00001376106506
   21     0.00000015834844     0.00000005027719     0.00000026840387     0.00000142597309     0.00000475168003
   22     0.00000002271006     0.00000000720832     0.00000004007918     0.00000021022860     0.00000070393359
   23     0.00000001086844     0.00000000348647     0.00000001785886     0.00000009676395     0.00000031633820
   24     0.00000000222288     0.00000000072933     0.00000000286982     0.00000002209225     0.00000005125660
   25     0.00000000173972     0.00000000060730     0.00000000117168     0.00000000907584     0.00000001866967
   26     0.00000000262731     0.00000000085931     0.00000000415409     0.00000002336852     0.00000007317476
   27     0.00000001895544     0.00000000617657     0.00000002845569     0.00000016573739     0.00000051310003
   28     0.00000001118223     0.00000000359119     0.00000001798209     0.00000010105570     0.00000031951474
   29     0.00000018658057     0.00000005984076     0.00000025466850     0.00000151201504     0.00000456975314
   30     0.00000022579346     0.00000007278330     0.00000033018112     0.00000191739353     0.00000586889079
   31     0.00000002620683     0.00000000859413     0.00000003289626     0.00000020484112     0.00000059186453
   32     0.00001581353916     0.00000490844401     0.00002856025717     0.00015292426346     0.00051243715251
   33     0.00010111005314     0.00003152334482     0.00018366269559     0.00093478874861     0.00330275121318
   34     0.00025391540907     0.00007856754546     0.00044961458869     0.00240650276054     0.00813556410192
   35     0.00014641041857     0.00004526292635     0.00026248035009     0.00139114104719     0.00474137680822
   36     0.00000000000000     0.03053672062149     0.00645090151901     0.00051873431175     0.00044351871557
   37     0.03053672062149     0.00000000000000     0.01358448979528     0.00036137358327     0.00241725626345
   38     0.00645090151901     0.01358448979528     0.00000000000000     0.00322218015923     0.00787414676463
   39     0.00051873431175     0.00036137358327     0.00322218015923     0.00000000000000     0.03107767254947
   40     0.00044351871557     0.00241725626345     0.00787414676463     0.03107767254947     0.00000000000000
   41     0.00009650518355     0.00009475881439     0.00043432426236     0.00513057817300     0.00359324269198
   42     0.00004765904229     0.00012821578415     0.00099465802628     0.00262920852182     0.00409941375844
   43     0.00000497834392     0.00000170827762     0.00000453349962     0.00004330963355     0.00010051261081
   44     0.00003627252735     0.00001245399448     0.00003922842090     0.00023121603329     0.00082292153429
   45     0.00000121954500     0.00000060772223     0.00000261868454     0.00001041708010     0.00004173640976
   46     0.00001401525152     0.00000423686128     0.00002993383475     0.00013258023525     0.00056473613860
   47     0.00002545210622     0.00000834694992     0.00003236220117     0.00019468732171     0.00057770768023
   48     0.00000799710429     0.00000324924260     0.00000585588825     0.00005609105919     0.00011339502624
   49     0.00001904938377     0.00000559337669     0.00003567085016     0.00017665091879     0.00063950192192
   50     0.00000195428599     0.00000081639098     0.00000139648035     0.00001383152684     0.00002289003671
   51     0.00000273654212     0.00000094391436     0.00000271070155     0.00001838745330     0.00005335800434
   52     0.00000007737685     0.00000002866549     0.00000040986365     0.00000171744395     0.00000675728209
   53     0.00000017284762     0.00000005269123     0.00000039451750     0.00000180457100     0.00000676806729
   54     0.00000001585531     0.00000000492583     0.00000002523606     0.00000013536291     0.00000045254024
   55     0.00000002817403     0.00000000884926     0.00000004516945     0.00000024490665     0.00000080425703
   56     0.00000002823189     0.00000000905147     0.00000004536110     0.00000025632539     0.00000080559039
   57     0.00000000221029     0.00000000070885     0.00000000365977     0.00000002104492     0.00000006446109
   58     0.00000001714438     0.00000000543481     0.00000003015334     0.00000015598474     0.00000053163392
   59     0.00000000242180     0.00000000077376     0.00000000407619     0.00000002321369     0.00000007279141
   60     0.00000000046260     0.00000000014684     0.00000000082640     0.00000000635838     0.00000001441631
   61     0.00000000009408     0.00000000003165     0.00000000014820     0.00000000522913     0.00000000236612
   62     0.00000000048571     0.00000000015277     0.00000000080954     0.00000001103043     0.00000001428127
   63     0.00000000204285     0.00000000067996     0.00000000277798     0.00000002019662     0.00000004967558
   64     0.00000000018156     0.00000000006022     0.00000000028179     0.00000000513253     0.00000000469555
   65     0.00000000345375     0.00000000110464     0.00000000583944     0.00000004985497     0.00000009908174
   66     0.00000000565123     0.00000000175330     0.00000001010727     0.00000005004590     0.00000017936293
   67     0.00000001587844     0.00000000508721     0.00000002510529     0.00000014005330     0.00000044839543
   68     0.00000013261502     0.00000004272479     0.00000019314030     0.00000111318198     0.00000343815105
   69     0.00000000939822     0.00000000305030     0.00000001293581     0.00000007913438     0.00000022692955
   70     0.00000001887760     0.00000000600993     0.00000002675837     0.00000014650634     0.00000048884586
   71     0.00007952187989     0.00002453578144     0.00014178303898     0.00079288224583     0.00256493306370
   72     0.00000213538160     0.00000067610028     0.00000393885210     0.00002494979379     0.00006899622764
   73     0.00006888816935     0.00002173330919     0.00012254896620     0.00068589420068     0.00222415992802
   74     0.00000012889263     0.00000004284034     0.00000017187702     0.00000188387238     0.00000302995362
   75     0.00000000765447     0.00000000257279     0.00000000882187     0.00000006259064     0.00000016233899
   76     0.00000000354055     0.00000000128068     0.00000000227300     0.00000002641084     0.00000003783276
   77     0.00000000095741     0.00000000031728     0.00000000100450     0.00000001558071     0.00000001985535
   78     0.00000000486139     0.00000000174070     0.00000000627567     0.00000003717501     0.00000011104054
   79     0.00000000203726     0.00000000068699     0.00000000205130     0.00000002871494     0.00000003480624
   80     0.00000004583215     0.00000001420808     0.00000009042246     0.00000041808773     0.00000165895770
   81     0.00000027207770     0.00000008592783     0.00000050104773     0.00000258545011     0.00000878536700
   82     0.00000000643754     0.00000000203792     0.00000001165271     0.00000007481149     0.00000020279137
   83     0.00000001388691     0.00000000439082     0.00000002544533     0.00000014766912     0.00000044373677

                41                  42                  43                  44                  45

    1     0.00740356925847     0.00083868586742     0.00002110126646     0.00018919843596     0.00000640774277
    2     0.01609865665219     0.00593589797879     0.00006828207232     0.00041282048826     0.00001952068271
    3     0.03841089756531     0.04278716502202     0.00038790556337     0.00305919873452     0.00011666552072
    4     0.90451076446559     0.81533171665862     0.00146559325727     0.00361747374956     0.00034415796411
    5     0.03140749712637     0.03506172482080     0.01159420233220     0.01203350212905     0.00098894745115
    6     0.00874820246753     0.01348715842385     0.05621396702739     0.00893554568468     0.00830491671044
    7     0.00152077137348     0.01192685193950     0.00942628697077     0.00981598863326     0.01069939676968
    8     0.00094176419705     0.01166515257048     0.89324081679482     0.07150199902749     0.05244077541244
    9     0.00037978376985     0.00397658151599     0.04421584517534     0.81427571723725     0.84266174457650
   10     0.00019738361362     0.00599811418697     0.00427985632202     0.05195938719867     0.04285042040721
   11     0.00011660446123     0.00369028310656     0.00175516742667     0.01100073112041     0.01295462862497
   12     0.00003608355156     0.00159448958815     0.00051812699972     0.00520858963891     0.00170725306940
   13     0.00002429387911     0.00085753697708     0.00009440419797     0.00085756623205     0.00136107658252
   14     0.00000555674165     0.00026343988256     0.00003548011815     0.00112682963846     0.00174669442711
   15     0.00000139317985     0.00006354305888     0.00000670456162     0.00015609767341     0.00030445941531
   16     0.00000111119653     0.00006616680235     0.00001307146186     0.00039890640180     0.00066677348168
   17     0.00000108942830     0.00004794463625     0.00000191887097     0.00002612279135     0.00004357703508
   18     0.00000026111472     0.00001099426931     0.00000018839319     0.00000326305466     0.00000454897549
   19     0.00000022218106     0.00000941932568     0.00000013938786     0.00000127225969     0.00000161621748
   20     0.00000085018732     0.00003652624711     0.00000049766486     0.00000559635412     0.00000727174188
   21     0.00000029443649     0.00001249103517     0.00000015241006     0.00000131381921     0.00000150438473
   22     0.00000004453206     0.00000182990518     0.00000001589892     0.00000012979275     0.00000012481780
   23     0.00000001950592     0.00000083984281     0.00000001117074     0.00000013933073     0.00000016055708
   24     0.00000000307415     0.00000014432527     0.00000001348142     0.00000042761765     0.00000051954233
   25     0.00000000141255     0.00000006550249     0.00000004520598     0.00000120462446     0.00000196304654
   26     0.00000000444447     0.00000019513239     0.00000000846389     0.00000024964885     0.00000035153671
   27     0.00000003097298     0.00000139968457     0.00000002853150     0.00000045476500     0.00000060336090
   28     0.00000001959642     0.00000085277459     0.00000001499805     0.00000028056132     0.00000025951601
   29     0.00000026769504     0.00001283859860     0.00000091917415     0.00001964013863     0.00003691857113
   30     0.00000034632705     0.00001620243284     0.00000077558980     0.00001474858196     0.00002396244480
   31     0.00000003273714     0.00000170520870     0.00000013935062     0.00000386624960     0.00000597604657
   32     0.00003397492065     0.00132409420578     0.00009932624210     0.00282965384884     0.00084806885215
   33     0.00021687875617     0.00861252274450     0.00007072611613     0.00860403284907     0.00090926809712
   34     0.00052107480594     0.02099596683596     0.00031171488922     0.00176464909946     0.00268018533284
   35     0.00030341487593     0.01218682624900     0.00021954702914     0.00086524647458     0.00224613550712
   36     0.00009650518355     0.00004765904229     0.00000497834392     0.00003627252735     0.00000121954500
   37     0.00009475881439     0.00012821578415     0.00000170827762     0.00001245399448     0.00000060772223
   38     0.00043432426236     0.00099465802628     0.00000453349962     0.00003922842090     0.00000261868454
   39     0.00513057817300     0.00262920852182     0.00004330963355     0.00023121603329     0.00001041708010
   40     0.00359324269198     0.00409941375844     0.00010051261081     0.00082292153429     0.00004173640976
   41     0.00000000000000     0.03171438197136     0.00009809168145     0.00007632931184     0.00002158064960
   42     0.03171438197136     0.00000000000000     0.00053660605109     0.00247816972593     0.00008575355989
   43     0.00009809168145     0.00053660605109     0.00000000000000     0.00587315759727     0.00456933240866
   44     0.00007632931184     0.00247816972593     0.00587315759727     0.00000000000000     0.02804346191733
   45     0.00002158064960     0.00008575355989     0.00456933240866     0.02804346191733     0.00000000000000
   46     0.00004911912925     0.00129950862328     0.00056932817138     0.00626194773093     0.00336245337039
   47     0.00003472012246     0.00167112570771     0.00074940361168     0.00416409582078     0.00189753026804
   48     0.00003164889270     0.00044832413676     0.00096205614891     0.00372194307393     0.00359940516454
   49     0.00005398145454     0.00158002626086     0.00025946537803     0.00047176118222     0.00404288054257
   50     0.00000781363171     0.00009244733914     0.00031908694677     0.00430937069083     0.00036648559708
   51     0.00000337003239     0.00016112870978     0.00004097970436     0.00067689862620     0.00010513566365
   52     0.00000120583213     0.00001303244573     0.00002013062361     0.00021285620289     0.00005063408053
   53     0.00000053758436     0.00001685111797     0.00000275829724     0.00003066097247     0.00004939931094
   54     0.00000002849452     0.00000121360743     0.00000009559659     0.00000084617791     0.00000147661115
   55     0.00000004878841     0.00000214135564     0.00000007159483     0.00000099851085     0.00000168933857
   56     0.00000004969657     0.00000215669175     0.00000003636860     0.00000041410457     0.00000050954887
   57     0.00000000407307     0.00000017137820     0.00000000243633     0.00000003248050     0.00000003249807
   58     0.00000003321050     0.00000138071171     0.00000001125023     0.00000007597386     0.00000005268115
   59     0.00000000445136     0.00000019175505     0.00000000262747     0.00000011916672     0.00000005953189
   60     0.00000000096196     0.00000003747316     0.00000000051440     0.00000003865929     0.00000000341184
   61     0.00000000024361     0.00000000665624     0.00000000081368     0.00000006978644     0.00000001605947
   62     0.00000000096738     0.00000003704860     0.00000000138877     0.00000016189091     0.00000006812920
   63     0.00000000310776     0.00000014112247     0.00000000520572     0.00000009998286     0.00000012214803
   64     0.00000000038007     0.00000001294317     0.00000000095602     0.00000006109574     0.00000001821306
   65     0.00000000712456     0.00000026664277     0.00000000609451     0.00000018714254     0.00000008010538
   66     0.00000001050334     0.00000046037290     0.00000004235348     0.00000074535071     0.00000126621846
   67     0.00000002759175     0.00000120269196     0.00000003647842     0.00000051394867     0.00000072771213
   68     0.00000020180362     0.00000948556613     0.00000044371328     0.00000851180126     0.00001371216989
   69     0.00000001296608     0.00000064146119     0.00000005028388     0.00000103883009     0.00000166912649
   70     0.00000002626726     0.00000132484556     0.00000005869981     0.00000151260527     0.00000202138776
   71     0.00016584956347     0.00661267710392     0.00009249127800     0.00040956183059     0.00097078775930
   72     0.00000448649460     0.00017594601404     0.00000402593329     0.00003049916986     0.00004885336192
   73     0.00014760240720     0.00581256160377     0.00009241793033     0.00037824869040     0.00096537643434
   74     0.00000019468578     0.00000857889306     0.00000079010849     0.00002402973727     0.00001943331871
   75     0.00000000931006     0.00000046816763     0.00000005791319     0.00000177728519     0.00000298085965
   76     0.00000000186582     0.00000014505707     0.00000011079159     0.00000430127766     0.00000742978443
   77     0.00000000095287     0.00000005638120     0.00000000825676     0.00000052108687     0.00000039214452
   78     0.00000000745539     0.00000030613883     0.00000012393873     0.00000439483490     0.00000756324861
   79     0.00000000236632     0.00000011203783     0.00000003146207     0.00000092554719     0.00000150152147
   80     0.00000011044780     0.00000404308750     0.00000008881599     0.00000293419681     0.00000431830515
   81     0.00000056707557     0.00002251385306     0.00000019550204     0.00000092294746     0.00000075134731
   82     0.00000001363688     0.00000052398756     0.00000000933868     0.00000016588287     0.00000011099757
   83     0.00000002920020     0.00000114098000     0.00000001281809     0.00000026330581     0.00000007043998

                46                  47                  48                  49                  50

    1     0.00007957361813     0.00015509174415     0.00005608664337     0.00011505876372     0.00001518358281
    2     0.00015689009132     0.00034846194017     0.00012040900557     0.00024100436105     0.00003501847170
    3     0.00145102853202     0.00208320120416     0.00061597402779     0.00175661957760     0.00013470223891
    4     0.00164591764494     0.00214145806299     0.00072630174578     0.00183625296743     0.00014248570602
    5     0.00454488383414     0.00816776750942     0.00318747072350     0.00561220494296     0.00075963155870
    6     0.00328384961517     0.00114075750779     0.00153854382835     0.00150270599058     0.00045198547817
    7     0.02193666611210     0.00108355542067     0.00937573387118     0.01252410642165     0.00281384676913
    8     0.01894677658907     0.01803390997238     0.04061653132014     0.00543508654624     0.01051110048984
    9     0.04280662656251     0.03880264472266     0.00749712107278     0.00694139207887     0.00563039548053
   10     0.77247400705850     0.84210031621386     0.05596022262536     0.05328431271268     0.00903049470953
   11     0.04833893193572     0.04482077409742     0.80984949188567     0.66959380240385     0.04152478446137
   12     0.01420050303586     0.00944392459741     0.03854474917235     0.07164194882572     0.87145759238158
   13     0.00915024179291     0.00261387470060     0.00439148082320     0.01436211485452     0.04433465784489
   14     0.01253893685871     0.00378475512540     0.00117486214599     0.03792248648740     0.00589577954004
   15     0.00190265272022     0.00043480935014     0.00012477181595     0.00449436400617     0.00078048599821
   16     0.00463967776976     0.00125160466085     0.00029574279050     0.01246215399683     0.00150754380584
   17     0.00025527820166     0.00006541742870     0.00001474880946     0.00038763555524     0.00004882671165
   18     0.00003092778615     0.00000934055080     0.00000368698004     0.00008549700213     0.00001630128113
   19     0.00000776153593     0.00000272491849     0.00000259160689     0.00000771890735     0.00000216403019
   20     0.00003393524162     0.00001282868933     0.00000202158351     0.00004117996242     0.00000287278921
   21     0.00000643252461     0.00000240436636     0.00000065623976     0.00000397295912     0.00000227117299
   22     0.00000062440490     0.00000018615531     0.00000029908834     0.00000176787866     0.00000040343611
   23     0.00000077985756     0.00000024903733     0.00000035215461     0.00000105023198     0.00000019842284
   24     0.00000350786522     0.00000076844114     0.00000680631077     0.00000817982079     0.00000090037684
   25     0.00001315161438     0.00000255153218     0.00000421557027     0.00003246071168     0.00000327490782
   26     0.00000248939233     0.00000058828079     0.00000093671612     0.00000640116451     0.00000082314693
   27     0.00000275697402     0.00000077490987     0.00000066444509     0.00000524784242     0.00000035182265
   28     0.00000134296562     0.00000042026760     0.00000331027155     0.00000233609645     0.00000013122427
   29     0.00022289961980     0.00005903381767     0.00001132420651     0.00046552478840     0.00004665466436
   30     0.00014799987286     0.00004524342803     0.00000724959340     0.00031512725635     0.00002852736041
   31     0.00003983288523     0.00001123883989     0.00000280819750     0.00009419971893     0.00000731677533
   32     0.01451271636226     0.00229760822456     0.00108085817620     0.01410339329666     0.00578210424685
   33     0.00875313808509     0.00264797360061     0.00076275381685     0.01405602422251     0.00804021761785
   34     0.01490921801564     0.00264876971774     0.00073643445274     0.00825544605213     0.00213102638777
   35     0.00827531172499     0.00225433996832     0.00065462982665     0.00649554042298     0.00110011690767
   36     0.00001401525152     0.00002545210622     0.00000799710429     0.00001904938377     0.00000195428599
   37     0.00000423686128     0.00000834694992     0.00000324924260     0.00000559337669     0.00000081639098
   38     0.00002993383475     0.00003236220117     0.00000585588825     0.00003567085016     0.00000139648035
   39     0.00013258023525     0.00019468732171     0.00005609105919     0.00017665091879     0.00001383152684
   40     0.00056473613860     0.00057770768023     0.00011339502624     0.00063950192192     0.00002289003671
   41     0.00004911912925     0.00003472012246     0.00003164889270     0.00005398145454     0.00000781363171
   42     0.00129950862328     0.00167112570771     0.00044832413676     0.00158002626086     0.00009244733914
   43     0.00056932817138     0.00074940361168     0.00096205614891     0.00025946537803     0.00031908694677
   44     0.00626194773093     0.00416409582078     0.00372194307393     0.00047176118222     0.00430937069083
   45     0.00336245337039     0.00189753026804     0.00359940516454     0.00404288054257     0.00036648559708
   46     0.00000000000000     0.03538203698662     0.00129661354027     0.00261224702400     0.00064312561128
   47     0.03538203698662     0.00000000000000     0.00321430911093     0.00148241651063     0.00128383678457
   48     0.00129661354027     0.00321430911093     0.00000000000000     0.03435058168204     0.00624476760195
   49     0.00261224702400     0.00148241651063     0.03435058168204     0.00000000000000     0.00372633710441
   50     0.00064312561128     0.00128383678457     0.00624476760195     0.00372633710441     0.00000000000000
   51     0.00374589759005     0.00198400237667     0.00240253395551     0.00345101799982     0.03599889389611
   52     0.00046509877006     0.00012786727889     0.00149174882101     0.00065634650223     0.00717659207347
   53     0.00033278401373     0.00011456119407     0.00017000240456     0.00098682147740     0.00132992581923
   54     0.00000659809740     0.00000140249251     0.00000240760303     0.00000540791280     0.00000355586938
   55     0.00001050562217     0.00000292489585     0.00000939693714     0.00001812838042     0.00000178516157
   56     0.00000220505247     0.00000069186104     0.00000177754331     0.00000230574543     0.00000038014927
   57     0.00000011489355     0.00000003426045     0.00000056053785     0.00000017799184     0.00000002437331
   58     0.00000017899650     0.00000009572902     0.00000058615036     0.00000010623148     0.00000027473037
   59     0.00000047535510     0.00000019453749     0.00000175988295     0.00000094712133     0.00000007510348
   60     0.00000003891091     0.00000001863781     0.00000142105425     0.00000009444188     0.00000003520595
   61     0.00000009737200     0.00000003243504     0.00000329393326     0.00000027851366     0.00000004203933
   62     0.00000075130710     0.00000022870623     0.00000889827198     0.00000191698367     0.00000013515598
   63     0.00000054299108     0.00000012915406     0.00000121082879     0.00000129418971     0.00000003397482
   64     0.00000006219828     0.00000001507777     0.00000222653285     0.00000019683159     0.00000003699857
   65     0.00000014702194     0.00000002542290     0.00000857251613     0.00000023106441     0.00000006110987
   66     0.00000788823956     0.00000285104940     0.00000467241918     0.00001743968368     0.00000292841028
   67     0.00000410029816     0.00000115062254     0.00000113739151     0.00000706350455     0.00000068122710
   68     0.00008507579893     0.00002568927442     0.00000425871584     0.00017853377555     0.00001655082956
   69     0.00001077512107     0.00000320714358     0.00000087116968     0.00002451477913     0.00000342646765
   70     0.00001359139993     0.00000396433427     0.00001280066132     0.00002743912834     0.00000163619551
   71     0.00318809385014     0.00095393314896     0.00025577520382     0.00201095221934     0.00047245489982
   72     0.00029280522348     0.00007851323589     0.00001570074790     0.00029654048817     0.00002363931470
   73     0.00363433415690     0.00090225788591     0.00026650162261     0.00253993764060     0.00034097058108
   74     0.00012816097632     0.00003330427940     0.00060675546226     0.00030306601318     0.00004790261700
   75     0.00001998311826     0.00000459596171     0.00000500416940     0.00005097863981     0.00000631641346
   76     0.00005026077027     0.00001169986274     0.00000982886631     0.00014230941267     0.00002055582248
   77     0.00000307466456     0.00000079375908     0.00001227605185     0.00000674242771     0.00000054564930
   78     0.00005502689105     0.00001437576397     0.00000576126908     0.00014399601104     0.00002459201204
   79     0.00000958633971     0.00000251903330     0.00001253950557     0.00002577957974     0.00000285273885
   80     0.00003595018819     0.00000849871016     0.00001254246171     0.00008791704290     0.00003729769357
   81     0.00000212736788     0.00000097447787     0.00000476234781     0.00000644079155     0.00000187389218
   82     0.00000028565711     0.00000005550018     0.00000829507499     0.00000102714017     0.00000016380911
   83     0.00000016372514     0.00000008795277     0.00000858101278     0.00000049344723     0.00000012820362

                51                  52                  53                  54                  55

    1     0.00001708994322     0.00000054748221     0.00000123846186     0.00000010991202     0.00000019913427
    2     0.00003807889324     0.00000116328569     0.00000254123842     0.00000022926441     0.00000040647850
    3     0.00020893117881     0.00001304100396     0.00001758150303     0.00000136453923     0.00000242922115
    4     0.00021198776363     0.00001651077198     0.00001961182516     0.00000140892921     0.00000251737119
    5     0.00082715450894     0.00003676496368     0.00005412661463     0.00000464243857     0.00000803864966
    6     0.00006881908888     0.00004845710443     0.00001181022624     0.00000050154127     0.00000073317702
    7     0.00008593843508     0.00045514568109     0.00011447593702     0.00000522295181     0.00000695087364
    8     0.00166680525540     0.00076774956728     0.00004827828271     0.00000058215746     0.00000031594494
    9     0.00080313101212     0.00028553450489     0.00006782706413     0.00000271245242     0.00000263897602
   10     0.00883251997922     0.00115776096625     0.00062840423947     0.00001391136477     0.00001744469951
   11     0.04606366876807     0.00542540929713     0.00205447380006     0.00002551243665     0.00003620427211
   12     0.78091712807431     0.03681082446590     0.00665975278015     0.00005750234519     0.00005383430443
   13     0.05881305749659     0.84098970061908     0.04582733104385     0.00077860641965     0.00021888578340
   14     0.03772477129469     0.03980744643694     0.89869835675245     0.00523818017480     0.00084630500841
   15     0.00573647332341     0.01121404503601     0.06086923672978     0.04370491301386     0.01168184996215
   16     0.00977637615393     0.01424573324462     0.00928054145244     0.00837894334381     0.00681307373685
   17     0.00060981377056     0.00165278825352     0.00758188018160     0.87628451616336     0.04286688839545
   18     0.00006680327976     0.00016344084190     0.00073344527593     0.03135952749987     0.90475944050191
   19     0.00001990026215     0.00009684663274     0.00012794176175     0.00785086804384     0.05175844583906
   20     0.00000918525317     0.00001090671294     0.00007172145610     0.00788069808670     0.01911816636094
   21     0.00000504681396     0.00001860678541     0.00003529108815     0.00107048695452     0.00584717392996
   22     0.00000326718973     0.00000363135794     0.00000450543271     0.00020543346441     0.00090228297634
   23     0.00000219857918     0.00001255372962     0.00000421816440     0.00017655092270     0.00028857960475
   24     0.00003143992015     0.00006940321126     0.00001373797497     0.00008190995029     0.00079448599685
   25     0.00003417952720     0.00010143726313     0.00004333801279     0.00018297483168     0.00141790923172
   26     0.00000966270233     0.00002287284598     0.00000717639904     0.00004894605627     0.00010270385461
   27     0.00000303371778     0.00001801618452     0.00000620264260     0.00124856521947     0.00922376287868
   28     0.00001671175160     0.00007878766665     0.00000914567642     0.00031504182316     0.00150985992411
   29     0.00052690897444     0.00020839548628     0.00044036229629     0.03764262402784     0.00828957376843
   30     0.00023032412362     0.00011144793082     0.00008127293741     0.00792445977184     0.00102901783481
   31     0.00009090947480     0.00008638352335     0.00010868664590     0.00536872624242     0.00417765534307
   32     0.00352521149860     0.04479396966669     0.00607308262307     0.00005654127339     0.00012605387524
   33     0.01261010419372     0.00693824366235     0.00710699004920     0.00003138163284     0.00006432063613
   34     0.00295994821463     0.01194489551768     0.00063037151380     0.00001346545687     0.00003053211284
   35     0.00069025329265     0.00313916887996     0.00040119232195     0.00000899641637     0.00003257419419
   36     0.00000273654212     0.00000007737685     0.00000017284762     0.00000001585531     0.00000002817403
   37     0.00000094391436     0.00000002866549     0.00000005269123     0.00000000492583     0.00000000884926
   38     0.00000271070155     0.00000040986365     0.00000039451750     0.00000002523606     0.00000004516945
   39     0.00001838745330     0.00000171744395     0.00000180457100     0.00000013536291     0.00000024490665
   40     0.00005335800434     0.00000675728209     0.00000676806729     0.00000045254024     0.00000080425703
   41     0.00000337003239     0.00000120583213     0.00000053758436     0.00000002849452     0.00000004878841
   42     0.00016112870978     0.00001303244573     0.00001685111797     0.00000121360743     0.00000214135564
   43     0.00004097970436     0.00002013062361     0.00000275829724     0.00000009559659     0.00000007159483
   44     0.00067689862620     0.00021285620289     0.00003066097247     0.00000084617791     0.00000099851085
   45     0.00010513566365     0.00005063408053     0.00004939931094     0.00000147661115     0.00000168933857
   46     0.00374589759005     0.00046509877006     0.00033278401373     0.00000659809740     0.00001050562217
   47     0.00198400237667     0.00012786727889     0.00011456119407     0.00000140249251     0.00000292489585
   48     0.00240253395551     0.00149174882101     0.00017000240456     0.00000240760303     0.00000939693714
   49     0.00345101799982     0.00065634650223     0.00098682147740     0.00000540791280     0.00001812838042
   50     0.03599889389611     0.00717659207347     0.00132992581923     0.00000355586938     0.00000178516157
   51     0.00000000000000     0.00186962891726     0.00151620666763     0.00004087128196     0.00006266818035
   52     0.00186962891726     0.00000000000000     0.00747252976460     0.00024512825841     0.00012985746409
   53     0.00151620666763     0.00747252976460     0.00000000000000     0.00254321876667     0.00011721099814
   54     0.00004087128196     0.00024512825841     0.00254321876667     0.00000000000000     0.00230011694665
   55     0.00006266818035     0.00012985746409     0.00011721099814     0.00230011694665     0.00000000000000
   56     0.00000954892872     0.00005661174112     0.00001085002340     0.00050006362623     0.00059211271706
   57     0.00000245277040     0.00001123492713     0.00000171297948     0.00001979598917     0.00017211562374
   58     0.00000337267698     0.00001422581698     0.00000261459594     0.00001579017565     0.00017274834503
   59     0.00001427618049     0.00007115821459     0.00000826216562     0.00007625215414     0.00009892560263
   60     0.00000852868483     0.00004412992069     0.00000350332959     0.00002864582056     0.00005666217310
   61     0.00001740239079     0.00008322828689     0.00000682770516     0.00003108271076     0.00016387586123
   62     0.00003286042243     0.00007316997714     0.00001444968975     0.00018555521352     0.01525103870907
   63     0.00000722190524     0.00004655461998     0.00000355910155     0.00022331896764     0.00018493038147
   64     0.00001300471042     0.00007546582548     0.00000485802384     0.00009069123414     0.00069782979412
   65     0.00004398677926     0.00023596565245     0.00001827414934     0.00006715592789     0.00031928863378
   66     0.00003753200646     0.00017361570204     0.00007978615739     0.00275837845653     0.00066548818021
   67     0.00001187743760     0.00002933518337     0.00000639784467     0.00050136329966     0.00016229373713
   68     0.00013174292569     0.00006618849998     0.00002060153129     0.00115084312320     0.00039702252018
   69     0.00001884783628     0.00000891845556     0.00000731496911     0.00197426602114     0.00035271923508
   70     0.00007553530699     0.00026037723920     0.00004071762620     0.00220944422782     0.00096617731613
   71     0.00037851248611     0.00073865281076     0.00008916614122     0.00000601565037     0.00003356861803
   72     0.00005569908667     0.00021953940467     0.00002516380462     0.00000172270581     0.00000782643648
   73     0.00009794964784     0.00053978176898     0.00009132746668     0.00000066275796     0.00000183647540
   74     0.00334499191377     0.01578228661545     0.00173946889863     0.01394580059477     0.12882746948897
   75     0.00006528623843     0.00030423805894     0.00008248792413     0.00017581762011     0.00285643834759
   76     0.00016701845996     0.00043888391869     0.00006369421916     0.00019807253872     0.00016169911889
   77     0.00006645712693     0.00024602358324     0.00003963438411     0.00014007625460     0.00064262565900
   78     0.00013102516035     0.00029736475203     0.00012963041595     0.00010254216485     0.01709698202214
   79     0.00007300638017     0.00023879621775     0.00003162567924     0.00010503971228     0.00140051482563
   80     0.00011417593972     0.00036260423148     0.00004921119581     0.00012833207974     0.00339423780497
   81     0.00003363969274     0.00008536964828     0.00006107753204     0.00307588884721     0.00274023597957
   82     0.00004341399396     0.00023393491705     0.00001600535767     0.00012524691054     0.00032624822754
   83     0.00005467985983     0.00033818648499     0.00002241059592     0.00024356364185     0.00015187049262

                56                  57                  58                  59                  60

    1     0.00000020486917     0.00000001622684     0.00000012358130     0.00000001791801     0.00000000328717
    2     0.00000040975301     0.00000003208914     0.00000024247832     0.00000003551963     0.00000000644433
    3     0.00000242764747     0.00000019237750     0.00000154229728     0.00000021998802     0.00000004445171
    4     0.00000254320432     0.00000020180588     0.00000164514803     0.00000022973397     0.00000004516650
    5     0.00000810718266     0.00000063926263     0.00000501541380     0.00000071377959     0.00000013690701
    6     0.00000066581058     0.00000005807722     0.00000042135588     0.00000007501842     0.00000002218924
    7     0.00000549538275     0.00000045081845     0.00000355774051     0.00000049769092     0.00000009873506
    8     0.00000021151644     0.00000002073707     0.00000006260579     0.00000004375142     0.00000002788324
    9     0.00000086951757     0.00000006542304     0.00000014363452     0.00000016489525     0.00000006750110
   10     0.00000404478211     0.00000027730694     0.00000046182643     0.00000075547263     0.00000016101529
   11     0.00000590276078     0.00000079282046     0.00000073937260     0.00000246152857     0.00000130021376
   12     0.00000522297999     0.00000099844517     0.00000244189371     0.00000405157262     0.00000232376144
   13     0.00003459348080     0.00000613261725     0.00001413995663     0.00002990753157     0.00001614803142
   14     0.00003636947764     0.00000501975132     0.00001242149189     0.00002281787452     0.00000338485692
   15     0.00014599642007     0.00003542424041     0.00009585142661     0.00031553458997     0.00004333602582
   16     0.00012360663055     0.00001731812707     0.00002603871412     0.00022076291312     0.00001378610694
   17     0.00132202659471     0.00010119148817     0.00038741207296     0.00030680962201     0.00003531738334
   18     0.01355211662843     0.00151256325112     0.00124398813508     0.00261692960613     0.00041175656341
   19     0.04874150303815     0.00929930498704     0.00981957655875     0.00749414088233     0.00054631687880
   20     0.02106937804524     0.00890033111176     0.00277561944964     0.00315500432261     0.00016298537866
   21     0.78641719276699     0.05005419681411     0.04192187160773     0.00599075901303     0.00861607122981
   22     0.04638225610007     0.87489389182717     0.89642068253878     0.04007162054021     0.04580792113125
   23     0.00537761447276     0.04397519851858     0.03790758288497     0.88678113098156     0.85383319130574
   24     0.00112432292458     0.01097938179632     0.00784657443502     0.05931293292191     0.05942109793842
   25     0.00025865446323     0.00095392953729     0.00056518157005     0.01054600929181     0.00730210675614
   26     0.00038360486967     0.00151768492417     0.00336509882605     0.01336876677705     0.01564529247447
   27     0.03848577333057     0.01251065823921     0.00375834723114     0.00168454778334     0.00186926675095
   28     0.00957651977411     0.00091939852978     0.00613883486993     0.00035864127091     0.00023739156701
   29     0.00060516716645     0.00003535522273     0.00010972279188     0.00358664089078     0.00011326987212
   30     0.00057542612718     0.00005236751560     0.00032798004667     0.01436784783518     0.00014349141468
   31     0.00035105748794     0.00006455893721     0.00047674956347     0.02258300844197     0.00043527353229
   32     0.00001566917098     0.00000427589390     0.00000674963130     0.00002045424707     0.00001201952960
   33     0.00000852412286     0.00000126002150     0.00001846306338     0.00000341840142     0.00000085744587
   34     0.00001265137173     0.00000238364369     0.00001142058650     0.00000611882314     0.00000297969244
   35     0.00001240517067     0.00000222390599     0.00000882517991     0.00000764973657     0.00000455919527
   36     0.00000002823189     0.00000000221029     0.00000001714438     0.00000000242180     0.00000000046260
   37     0.00000000905147     0.00000000070885     0.00000000543481     0.00000000077376     0.00000000014684
   38     0.00000004536110     0.00000000365977     0.00000003015334     0.00000000407619     0.00000000082640
   39     0.00000025632539     0.00000002104492     0.00000015598474     0.00000002321369     0.00000000635838
   40     0.00000080559039     0.00000006446109     0.00000053163392     0.00000007279141     0.00000001441631
   41     0.00000004969657     0.00000000407307     0.00000003321050     0.00000000445136     0.00000000096196
   42     0.00000215669175     0.00000017137820     0.00000138071171     0.00000019175505     0.00000003747316
   43     0.00000003636860     0.00000000243633     0.00000001125023     0.00000000262747     0.00000000051440
   44     0.00000041410457     0.00000003248050     0.00000007597386     0.00000011916672     0.00000003865929
   45     0.00000050954887     0.00000003249807     0.00000005268115     0.00000005953189     0.00000000341184
   46     0.00000220505247     0.00000011489355     0.00000017899650     0.00000047535510     0.00000003891091
   47     0.00000069186104     0.00000003426045     0.00000009572902     0.00000019453749     0.00000001863781
   48     0.00000177754331     0.00000056053785     0.00000058615036     0.00000175988295     0.00000142105425
   49     0.00000230574543     0.00000017799184     0.00000010623148     0.00000094712133     0.00000009444188
   50     0.00000038014927     0.00000002437331     0.00000027473037     0.00000007510348     0.00000003520595
   51     0.00000954892872     0.00000245277040     0.00000337267698     0.00001427618049     0.00000852868483
   52     0.00005661174112     0.00001123492713     0.00001422581698     0.00007115821459     0.00004412992069
   53     0.00001085002340     0.00000171297948     0.00000261459594     0.00000826216562     0.00000350332959
   54     0.00050006362623     0.00001979598917     0.00001579017565     0.00007625215414     0.00002864582056
   55     0.00059211271706     0.00017211562374     0.00017274834503     0.00009892560263     0.00005666217310
   56     0.00000000000000     0.00241617616399     0.00356960531049     0.00051739035321     0.00056665240874
   57     0.00241617616399     0.00000000000000     0.03544283443443     0.00211949215219     0.00621282402628
   58     0.00356960531049     0.03544283443443     0.00000000000000     0.01327503139897     0.00221352940990
   59     0.00051739035321     0.00211949215219     0.01327503139897     0.00000000000000     0.03270343684004
   60     0.00056665240874     0.00621282402628     0.00221352940990     0.03270343684004     0.00000000000000
   61     0.00006676887516     0.00010576346734     0.00017123734066     0.00129342105210     0.00104074335143
   62     0.00354772675397     0.00122146843229     0.00043065789589     0.00007190391636     0.00014863486182
   63     0.00430413444393     0.00028538777480     0.00045346131473     0.00017766205526     0.00011875956627
   64     0.00063563542595     0.00032385985886     0.00512877116674     0.00042906344022     0.00007952192650
   65     0.00099441890099     0.00012732103715     0.00043475191540     0.00025269407668     0.00009588842928
   66     0.00011799783146     0.00001452701855     0.00003363136215     0.00091017403816     0.00006288820809
   67     0.00012695199837     0.00003339496844     0.00023048177580     0.00974011991157     0.00010948341963
   68     0.00010956880756     0.00001027536221     0.00002613291030     0.00031306690315     0.00000898166457
   69     0.00011337817254     0.00001291982398     0.00006307807764     0.00104360255173     0.00001494054238
   70     0.00029139092970     0.00003437002429     0.00034670337262     0.00466390603272     0.00017166034135
   71     0.00000942636571     0.00000212329566     0.00000622195676     0.00000836947305     0.00000541681010
   72     0.00000186080130     0.00000047671489     0.00000054846438     0.00000192861788     0.00000137560096
   73     0.00000380831840     0.00000051783019     0.00000276369644     0.00000083915888     0.00000045575963
   74     0.01573974625610     0.00192669105593     0.00268559659672     0.04879745350355     0.00780470303314
   75     0.00027948882315     0.00004392275362     0.00007155391873     0.00197437168813     0.00030621020314
   76     0.00011801304837     0.00001437165671     0.00006007356724     0.00046805725318     0.00008866868330
   77     0.00013108701285     0.00002724340032     0.00005202086686     0.00038845607380     0.00008687122298
   78     0.00282061054738     0.00017564085722     0.00005579874833     0.00104693234693     0.00021148805841
   79     0.00019162757281     0.00003901485487     0.00003647515131     0.00015933505896     0.00010410061936
   80     0.00012163627401     0.00002625833588     0.00001679863848     0.00008892368723     0.00004330054096
   81     0.03949960887382     0.00290057136961     0.00016005710829     0.00090788496944     0.00049599537996
   82     0.00099002384684     0.00011044489772     0.00003318127105     0.00057835692692     0.00012394840428
   83     0.00210513832944     0.00015325656892     0.00003596341225     0.00024830746346     0.00015374686842

                61                  62                  63                  64                  65

    1     0.00000000063740     0.00000000383381     0.00000001580400     0.00000000132487     0.00000002394733
    2     0.00000000129469     0.00000000776130     0.00000003203340     0.00000000267985     0.00000004771571
    3     0.00000001336242     0.00000005274276     0.00000016265591     0.00000001933857     0.00000030857745
    4     0.00000000940973     0.00000004836700     0.00000016334209     0.00000001617848     0.00000030816501
    5     0.00000002869291     0.00000015012582     0.00000057082995     0.00000005258732     0.00000099223817
    6     0.00000002262062     0.00000005961447     0.00000005641795     0.00000001893431     0.00000016085517
    7     0.00000002044136     0.00000012627171     0.00000034523248     0.00000004296859     0.00000077647444
    8     0.00000006010415     0.00000014071102     0.00000006499648     0.00000005252708     0.00000016959455
    9     0.00000014493470     0.00000029034904     0.00000022934162     0.00000012476090     0.00000043800436
   10     0.00000041935155     0.00000114423927     0.00000127550406     0.00000045223923     0.00000134730796
   11     0.00000319308691     0.00000778278271     0.00000344419114     0.00000252812740     0.00000850203765
   12     0.00000543980964     0.00000876411180     0.00000365074527     0.00000459626820     0.00001375532929
   13     0.00003122055800     0.00003832620164     0.00001790040944     0.00002873552009     0.00008017182583
   14     0.00000376343899     0.00006507286012     0.00000915563892     0.00000540955747     0.00001078424206
   15     0.00003998500675     0.00034458890927     0.00007929713512     0.00009762995098     0.00018816338588
   16     0.00005550425846     0.00027270169645     0.00006473445056     0.00009531570774     0.00013382502453
   17     0.00001327574833     0.00079374355811     0.00024037349117     0.00014729085446     0.00013618076524
   18     0.00003479492744     0.00832082613721     0.00410859467954     0.00171833447727     0.00040965915808
   19     0.00008466333858     0.00601318115147     0.00317290487215     0.00095040234706     0.00182706060408
   20     0.00009406522767     0.00489453772550     0.01268911220580     0.00461007521754     0.00170505158484
   21     0.00009623241488     0.05161841033864     0.01167631174226     0.00659948349306     0.01219983251495
   22     0.00082248228813     0.00934873229380     0.00154425732113     0.00685662163895     0.00093439096263
   23     0.00965934590683     0.00071846792886     0.00061279615695     0.00080707764126     0.00011891603209
   24     0.07386474727524     0.00165483896914     0.00048420924315     0.00979922401424     0.00077709414947
   25     0.00949670891937     0.00639060924626     0.00042664607573     0.00230680540332     0.00064728594733
   26     0.96956475475651     0.00012457841024     0.00028899312998     0.00823630275742     0.00034425295517
   27     0.00007241882187     0.92053462894166     0.03611754615228     0.03354863928009     0.03894490573555
   28     0.00033855969718     0.04569277540161     0.82473044366118     0.89668673710404     0.92013804968172
   29     0.00003462520689     0.00094560748214     0.00014075989259     0.00013315501718     0.00021727321022
   30     0.00004723832982     0.00015120388268     0.00029035694193     0.00010220074205     0.00003708993983
   31     0.00010007883032     0.00291345603969     0.00025838361960     0.00047675937554     0.00037771365066
   32     0.00002582012897     0.00004844474823     0.00001009564522     0.00001915158981     0.00006209896442
   33     0.00000109576312     0.00000562611962     0.00000103501573     0.00000106930998     0.00000237387898
   34     0.00000593640231     0.00001213834647     0.00000303199088     0.00000478866854     0.00001633238165
   35     0.00000925020935     0.00001831933668     0.00000408708138     0.00000717046421     0.00002492093362
   36     0.00000000009408     0.00000000048571     0.00000000204285     0.00000000018156     0.00000000345375
   37     0.00000000003165     0.00000000015277     0.00000000067996     0.00000000006022     0.00000000110464
   38     0.00000000014820     0.00000000080954     0.00000000277798     0.00000000028179     0.00000000583944
   39     0.00000000522913     0.00000001103043     0.00000002019662     0.00000000513253     0.00000004985497
   40     0.00000000236612     0.00000001428127     0.00000004967558     0.00000000469555     0.00000009908174
   41     0.00000000024361     0.00000000096738     0.00000000310776     0.00000000038007     0.00000000712456
   42     0.00000000665624     0.00000003704860     0.00000014112247     0.00000001294317     0.00000026664277
   43     0.00000000081368     0.00000000138877     0.00000000520572     0.00000000095602     0.00000000609451
   44     0.00000006978644     0.00000016189091     0.00000009998286     0.00000006109574     0.00000018714254
   45     0.00000001605947     0.00000006812920     0.00000012214803     0.00000001821306     0.00000008010538
   46     0.00000009737200     0.00000075130710     0.00000054299108     0.00000006219828     0.00000014702194
   47     0.00000003243504     0.00000022870623     0.00000012915406     0.00000001507777     0.00000002542290
   48     0.00000329393326     0.00000889827198     0.00000121082879     0.00000222653285     0.00000857251613
   49     0.00000027851366     0.00000191698367     0.00000129418971     0.00000019683159     0.00000023106441
   50     0.00000004203933     0.00000013515598     0.00000003397482     0.00000003699857     0.00000006110987
   51     0.00001740239079     0.00003286042243     0.00000722190524     0.00001300471042     0.00004398677926
   52     0.00008322828689     0.00007316997714     0.00004655461998     0.00007546582548     0.00023596565245
   53     0.00000682770516     0.00001444968975     0.00000355910155     0.00000485802384     0.00001827414934
   54     0.00003108271076     0.00018555521352     0.00022331896764     0.00009069123414     0.00006715592789
   55     0.00016387586123     0.01525103870907     0.00018493038147     0.00069782979412     0.00031928863378
   56     0.00006676887516     0.00354772675397     0.00430413444393     0.00063563542595     0.00099441890099
   57     0.00010576346734     0.00122146843229     0.00028538777480     0.00032385985886     0.00012732103715
   58     0.00017123734066     0.00043065789589     0.00045346131473     0.00512877116674     0.00043475191540
   59     0.00129342105210     0.00007190391636     0.00017766205526     0.00042906344022     0.00025269407668
   60     0.00104074335143     0.00014863486182     0.00011875956627     0.00007952192650     0.00009588842928
   61     0.00000000000000     0.00012871401216     0.00004201256280     0.00046450500231     0.00015739147361
   62     0.00012871401216     0.00000000000000     0.00219303185166     0.00822692148362     0.00682850130843
   63     0.00004201256280     0.00219303185166     0.00000000000000     0.03914860850490     0.03564533229714
   64     0.00046450500231     0.00822692148362     0.03914860850490     0.00000000000000     0.03418223357567
   65     0.00015739147361     0.00682850130843     0.03564533229714     0.03418223357567     0.00000000000000
   66     0.00010432770236     0.00009943966803     0.00007597928479     0.00009615752990     0.00022701636026
   67     0.00003943562445     0.00007056023908     0.00002162395262     0.00003860166915     0.00005744144866
   68     0.00001559198653     0.00001573043669     0.00006236406032     0.00003533577354     0.00004596119193
   69     0.00001640023432     0.00003361492762     0.00007248913998     0.00002809319634     0.00000686267790
   70     0.00027744859786     0.00079116876828     0.00018470758259     0.00021491453378     0.00039189022597
   71     0.00001186356580     0.00002470785562     0.00000449009632     0.00000857567233     0.00002901421223
   72     0.00000298937660     0.00000540496629     0.00000123877724     0.00000220283512     0.00000766668215
   73     0.00000073295841     0.00000169574764     0.00000053003487     0.00000052462595     0.00000332208694
   74     0.01331023796605     0.10280750806237     0.01516403671448     0.01713752209281     0.04858307234491
   75     0.00031240873664     0.00061698748633     0.00045214953304     0.00035234708517     0.00092044185599
   76     0.00015934122916     0.00006595002036     0.00013595915679     0.00012899211112     0.00048286910715
   77     0.00025263554168     0.00038772700347     0.00015690849961     0.00019487244210     0.00053999011463
   78     0.00012309379993     0.01804465810073     0.00270144130624     0.00080436861944     0.00086701422037
   79     0.00024743373257     0.00143415915226     0.00012464339796     0.00016616659754     0.00065385869923
   80     0.00013287261966     0.00153391599242     0.00010608116857     0.00009387191721     0.00039977478054
   81     0.00034243414740     0.01262937624122     0.04538372884585     0.01984052305433     0.01040853127888
   82     0.00036596559269     0.00050926023866     0.00097898333828     0.00075066183519     0.00124317742528
   83     0.00021191967908     0.00058095736692     0.00227885737299     0.00104143417541     0.00128768223706

                66                  67                  68                  69                  70

    1     0.00000003900646     0.00000011624532     0.00000099424918     0.00000007242745     0.00000013931508
    2     0.00000008165872     0.00000023534778     0.00000205218146     0.00000015137854     0.00000029045848
    3     0.00000052896893     0.00000135682502     0.00001082124700     0.00000073708145     0.00000156767518
    4     0.00000055572815     0.00000139986574     0.00001088268836     0.00000072545431     0.00000157802298
    5     0.00000173309466     0.00000458677966     0.00003776468542     0.00000266107459     0.00000522771365
    6     0.00000022470191     0.00000040876775     0.00000339819483     0.00000027186784     0.00000048820995
    7     0.00000181184346     0.00000364504217     0.00003121935931     0.00000230211915     0.00000375658098
    8     0.00000021426052     0.00000009099157     0.00000081566673     0.00000009086113     0.00000039060255
    9     0.00000206290533     0.00000108558654     0.00001776705017     0.00000205049796     0.00000309968979
   10     0.00001624221296     0.00000683594257     0.00013744758536     0.00001769631447     0.00002155575025
   11     0.00004084098191     0.00001043040431     0.00024870884806     0.00003527248623     0.00004234791294
   12     0.00005057854282     0.00001059512416     0.00023568706913     0.00003863440365     0.00004445946208
   13     0.00014877734045     0.00003171347883     0.00032871044782     0.00004851182682     0.00014225362000
   14     0.00103553067184     0.00005757239852     0.00012993518820     0.00003065571526     0.00014286540651
   15     0.00636189254260     0.00069920764478     0.00224884402972     0.00061233647427     0.00099994377912
   16     0.00185732549201     0.00012961527878     0.00102699132560     0.00034597433308     0.00115141527348
   17     0.05014337802627     0.00442632022307     0.01785067977174     0.00735574528581     0.01128858482640
   18     0.00753033918729     0.00079078847890     0.00159142169951     0.00140576300049     0.00933154038079
   19     0.00075461030175     0.00562387400939     0.00064044541402     0.00041211084363     0.00069807115671
   20     0.00055502191854     0.01537386380971     0.00124963271718     0.00082369458344     0.00111540255002
   21     0.00018501273022     0.00055820548118     0.00020874503744     0.00019760685523     0.00030413420790
   22     0.00007544128538     0.00039791695621     0.00010616820449     0.00012820468349     0.00048486993910
   23     0.00033440484287     0.00297674940347     0.00011773299563     0.00059658108064     0.00138804423163
   24     0.00023152076911     0.00036258694522     0.00004354742428     0.00013516555927     0.00254857867666
   25     0.00057108044498     0.00015259759577     0.00015701945782     0.00042969787198     0.00202645375312
   26     0.00006428188254     0.00018827693578     0.00003954305160     0.00008453322383     0.00028874500743
   27     0.00008444443458     0.00008480839342     0.00029677032652     0.00027010833283     0.00027804895042
   28     0.00013847164402     0.00006681243612     0.00014848641715     0.00014421480602     0.00046880457088
   29     0.86003753829168     0.05388022659362     0.09057579244567     0.08194394612027     0.12003536019543
   30     0.05681454808283     0.91361547019921     0.80408961875874     0.82679037390061     0.04551671368580
   31     0.04917991402538     0.00601936334546     0.01128818881604     0.02211644003664     1.03829867327323
   32     0.00006682070056     0.00001656119198     0.00014315412191     0.00002221798330     0.00011236402956
   33     0.00006502752224     0.00001164554161     0.00022885527667     0.00004265770806     0.00004327897279
   34     0.00001253550949     0.00000645481904     0.00005170835291     0.00000658220675     0.00002572291388
   35     0.00001643040823     0.00000660547624     0.00002522044325     0.00000317043807     0.00003718053950
   36     0.00000000565123     0.00000001587844     0.00000013261502     0.00000000939822     0.00000001887760
   37     0.00000000175330     0.00000000508721     0.00000004272479     0.00000000305030     0.00000000600993
   38     0.00000001010727     0.00000002510529     0.00000019314030     0.00000001293581     0.00000002675837
   39     0.00000005004590     0.00000014005330     0.00000111318198     0.00000007913438     0.00000014650634
   40     0.00000017936293     0.00000044839543     0.00000343815105     0.00000022692955     0.00000048884586
   41     0.00000001050334     0.00000002759175     0.00000020180362     0.00000001296608     0.00000002626726
   42     0.00000046037290     0.00000120269196     0.00000948556613     0.00000064146119     0.00000132484556
   43     0.00000004235348     0.00000003647842     0.00000044371328     0.00000005028388     0.00000005869981
   44     0.00000074535071     0.00000051394867     0.00000851180126     0.00000103883009     0.00000151260527
   45     0.00000126621846     0.00000072771213     0.00001371216989     0.00000166912649     0.00000202138776
   46     0.00000788823956     0.00000410029816     0.00008507579893     0.00001077512107     0.00001359139993
   47     0.00000285104940     0.00000115062254     0.00002568927442     0.00000320714358     0.00000396433427
   48     0.00000467241918     0.00000113739151     0.00000425871584     0.00000087116968     0.00001280066132
   49     0.00001743968368     0.00000706350455     0.00017853377555     0.00002451477913     0.00002743912834
   50     0.00000292841028     0.00000068122710     0.00001655082956     0.00000342646765     0.00000163619551
   51     0.00003753200646     0.00001187743760     0.00013174292569     0.00001884783628     0.00007553530699
   52     0.00017361570204     0.00002933518337     0.00006618849998     0.00000891845556     0.00026037723920
   53     0.00007978615739     0.00000639784467     0.00002060153129     0.00000731496911     0.00004071762620
   54     0.00275837845653     0.00050136329966     0.00115084312320     0.00197426602114     0.00220944422782
   55     0.00066548818021     0.00016229373713     0.00039702252018     0.00035271923508     0.00096617731613
   56     0.00011799783146     0.00012695199837     0.00010956880756     0.00011337817254     0.00029139092970
   57     0.00001452701855     0.00003339496844     0.00001027536221     0.00001291982398     0.00003437002429
   58     0.00003363136215     0.00023048177580     0.00002613291030     0.00006307807764     0.00034670337262
   59     0.00091017403816     0.00974011991157     0.00031306690315     0.00104360255173     0.00466390603272
   60     0.00006288820809     0.00010948341963     0.00000898166457     0.00001494054238     0.00017166034135
   61     0.00010432770236     0.00003943562445     0.00001559198653     0.00001640023432     0.00027744859786
   62     0.00009943966803     0.00007056023908     0.00001573043669     0.00003361492762     0.00079116876828
   63     0.00007597928479     0.00002162395262     0.00006236406032     0.00007248913998     0.00018470758259
   64     0.00009615752990     0.00003860166915     0.00003533577354     0.00002809319634     0.00021491453378
   65     0.00022701636026     0.00005744144866     0.00004596119193     0.00000686267790     0.00039189022597
   66     0.00000000000000     0.01018618648516     0.01683297540563     0.00322424208596     0.02857274496239
   67     0.01018618648516     0.00000000000000     0.03203666519612     0.03629325177561     0.00290769805178
   68     0.01683297540563     0.03203666519612     0.00000000000000     0.03702444992149     0.01725973944701
   69     0.00322424208596     0.03629325177561     0.03702444992149     0.00000000000000     0.01198472877539
   70     0.02857274496239     0.00290769805178     0.01725973944701     0.01198472877539     0.00000000000000
   71     0.00001891868830     0.00000479952466     0.00000451380200     0.00000081157859     0.00004382662460
   72     0.00000432447210     0.00000100290857     0.00000317751133     0.00000050310012     0.00001015560091
   73     0.00000055713540     0.00000134774991     0.00000344737980     0.00000014657338     0.00000171232225
   74     0.02354538931422     0.00545515596112     0.00586100514461     0.00663206998294     0.10451284939074
   75     0.00042664080511     0.00010843733772     0.00019811018306     0.00045062929614     0.00074784478601
   76     0.00041234471462     0.00008466903694     0.00006554554301     0.00002030620702     0.00111999247538
   77     0.00040143949648     0.00007636811858     0.00006149050246     0.00011352970050     0.00160693924875
   78     0.00028638657759     0.00008162955304     0.00039501152228     0.00071182125071     0.00109107855192
   79     0.00024970859352     0.00005433662238     0.00005561012081     0.00003882930740     0.00076698090707
   80     0.00017232202294     0.00004784894414     0.00004839085577     0.00003662754516     0.00079148078098
   81     0.00073142500655     0.00024276668500     0.00124392569267     0.00151645348978     0.00326623483732
   82     0.00025023244339     0.00004485936047     0.00006561919940     0.00005130671273     0.00139568871831
   83     0.00032150019366     0.00005767133253     0.00011893606865     0.00007807966263     0.00054111968867

                71                  72                  73                  74                  75

    1     0.00050846681158     0.00001389311116     0.00042675260994     0.00000094239178     0.00000005810832
    2     0.00105729867482     0.00002869218495     0.00088870149131     0.00000198060902     0.00000012633444
    3     0.00736017949916     0.00020254244314     0.00632046459401     0.00001112560954     0.00000057197017
    4     0.00790303912328     0.00021162388392     0.00681714471112     0.00001029192805     0.00000055246487
    5     0.02277011069951     0.00056639883062     0.02151041518965     0.00003635577967     0.00000209503816
    6     0.00208780076853     0.00008584872389     0.00578665568971     0.00000753762531     0.00000032797013
    7     0.02240041443887     0.00069523796977     0.07209752215050     0.00002339187873     0.00000166288062
    8     0.00035445361010     0.00002429101048     0.00057256360154     0.00001834189948     0.00000040133358
    9     0.00155823220135     0.00007694868239     0.00154699126360     0.00005234926811     0.00000384858505
   10     0.00502876841103     0.00032902093053     0.00557164000203     0.00027553609331     0.00003560323216
   11     0.00283966100852     0.00045349263963     0.00354556157839     0.00106920697574     0.00007536156597
   12     0.00132846030870     0.00022999078901     0.00097252505465     0.00163980219237     0.00007472874697
   13     0.00473155036606     0.00069479330463     0.00251598628078     0.00848617380840     0.00017183659786
   14     0.00181923778079     0.00071634819754     0.00079213141789     0.01206478278268     0.00055511259964
   15     0.00021996268144     0.00005154097913     0.00009013213109     0.06340634549472     0.00295219161454
   16     0.00049454983717     0.00015641390702     0.00017768596959     0.39591095755295     0.01945459202963
   17     0.00002304065043     0.00001334896628     0.00002341599934     0.05702743918501     0.00066305583754
   18     0.00002756868763     0.00000220439122     0.00001822223545     0.35768310221372     0.00225000017985
   19     0.00002576304242     0.00000251583212     0.00001449380443     0.06013339131268     0.00120969960032
   20     0.00007418527481     0.00000269497699     0.00006056980896     0.03511229546932     0.00095200564053
   21     0.00002901451731     0.00000104546941     0.00002024758863     0.04153670774888     0.00102904385938
   22     0.00000633321068     0.00000032871203     0.00000449687515     0.01024753180992     0.00031344302194
   23     0.00000290900277     0.00000035953151     0.00000153037730     0.06094215105907     0.00158327576184
   24     0.00001959583180     0.00000452169085     0.00000144449551     0.17234541011323     0.01477011113951
   25     0.00000513719617     0.00000108617276     0.00000168167215     0.72768601323094     0.10152561983996
   26     0.00000346040778     0.00000074847770     0.00000077081257     0.03715763776466     0.00578031765388
   27     0.00000394862470     0.00000050487449     0.00000204742776     0.31071957348336     0.00504940879735
   28     0.00001212728904     0.00000268580660     0.00000192465321     0.08120041662779     0.00184187869733
   29     0.00000891004703     0.00000643298862     0.00000530399315     0.13848351278302     0.00251133985038
   30     0.00000460748794     0.00000518124907     0.00000700866594     0.02034311557515     0.00116568078912
   31     0.00000272923127     0.00000159769456     0.00000083813709     0.57085202520240     0.01620207150103
   32     0.01457221182054     0.00938075166232     0.01213480610150     0.00454059818874     0.00006706682050
   33     0.02015670550181     0.00273603890404     0.02200899484293     0.00069928493765     0.00012068004243
   34     0.06106488502792     0.03246711127053     0.05219206657449     0.00164711977674     0.00002182199091
   35     0.73288913404100     0.93614423303179     0.77254116299922     0.00192573590061     0.00001893268577
   36     0.00007952187989     0.00000213538160     0.00006888816935     0.00000012889263     0.00000000765447
   37     0.00002453578144     0.00000067610028     0.00002173330919     0.00000004284034     0.00000000257279
   38     0.00014178303898     0.00000393885210     0.00012254896620     0.00000017187702     0.00000000882187
   39     0.00079288224583     0.00002494979379     0.00068589420068     0.00000188387238     0.00000006259064
   40     0.00256493306370     0.00006899622764     0.00222415992802     0.00000302995362     0.00000016233899
   41     0.00016584956347     0.00000448649460     0.00014760240720     0.00000019468578     0.00000000931006
   42     0.00661267710392     0.00017594601404     0.00581256160377     0.00000857889306     0.00000046816763
   43     0.00009249127800     0.00000402593329     0.00009241793033     0.00000079010849     0.00000005791319
   44     0.00040956183059     0.00003049916986     0.00037824869040     0.00002402973727     0.00000177728519
   45     0.00097078775930     0.00004885336192     0.00096537643434     0.00001943331871     0.00000298085965
   46     0.00318809385014     0.00029280522348     0.00363433415690     0.00012816097632     0.00001998311826
   47     0.00095393314896     0.00007851323589     0.00090225788591     0.00003330427940     0.00000459596171
   48     0.00025577520382     0.00001570074790     0.00026650162261     0.00060675546226     0.00000500416940
   49     0.00201095221934     0.00029654048817     0.00253993764060     0.00030306601318     0.00005097863981
   50     0.00047245489982     0.00002363931470     0.00034097058108     0.00004790261700     0.00000631641346
   51     0.00037851248611     0.00005569908667     0.00009794964784     0.00334499191377     0.00006528623843
   52     0.00073865281076     0.00021953940467     0.00053978176898     0.01578228661545     0.00030423805894
   53     0.00008916614122     0.00002516380462     0.00009132746668     0.00173946889863     0.00008248792413
   54     0.00000601565037     0.00000172270581     0.00000066275796     0.01394580059477     0.00017581762011
   55     0.00003356861803     0.00000782643648     0.00000183647540     0.12882746948897     0.00285643834759
   56     0.00000942636571     0.00000186080130     0.00000380831840     0.01573974625610     0.00027948882315
   57     0.00000212329566     0.00000047671489     0.00000051783019     0.00192669105593     0.00004392275362
   58     0.00000622195676     0.00000054846438     0.00000276369644     0.00268559659672     0.00007155391873
   59     0.00000836947305     0.00000192861788     0.00000083915888     0.04879745350355     0.00197437168813
   60     0.00000541681010     0.00000137560096     0.00000045575963     0.00780470303314     0.00030621020314
   61     0.00001186356580     0.00000298937660     0.00000073295841     0.01331023796605     0.00031240873664
   62     0.00002470785562     0.00000540496629     0.00000169574764     0.10280750806237     0.00061698748633
   63     0.00000449009632     0.00000123877724     0.00000053003487     0.01516403671448     0.00045214953304
   64     0.00000857567233     0.00000220283512     0.00000052462595     0.01713752209281     0.00035234708517
   65     0.00002901421223     0.00000766668215     0.00000332208694     0.04858307234491     0.00092044185599
   66     0.00001891868830     0.00000432447210     0.00000055713540     0.02354538931422     0.00042664080511
   67     0.00000479952466     0.00000100290857     0.00000134774991     0.00545515596112     0.00010843733772
   68     0.00000451380200     0.00000317751133     0.00000344737980     0.00586100514461     0.00019811018306
   69     0.00000081157859     0.00000050310012     0.00000014657338     0.00663206998294     0.00045062929614
   70     0.00004382662460     0.00001015560091     0.00000171232225     0.10451284939074     0.00074784478601
   71     0.00000000000000     0.03146432701403     0.05131187394814     0.00216116135859     0.00001738134207
   72     0.03146432701403     0.00000000000000     0.03174424200787     0.00053689033257     0.00000476425030
   73     0.05131187394814     0.03174424200787     0.00000000000000     0.00012531586337     0.00000208069874
   74     0.00216116135859     0.00053689033257     0.00012531586337     0.00000000000000     0.65595201440406
   75     0.00001738134207     0.00000476425030     0.00000208069874     0.65595201440406     0.00000000000000
   76     0.00003207998580     0.00000789605069     0.00000599253480     0.07953125602342     0.93523043768713
   77     0.00004143292313     0.00001011070742     0.00000253582674     0.08278483688994     0.93925001927145
   78     0.00002885813765     0.00000695079677     0.00000300106189     0.89562237171343     0.04714271063925
   79     0.00004011576826     0.00000959814288     0.00000177586695     0.06947644378077     0.00181740159311
   80     0.00004183822529     0.00000901874940     0.00000497960382     0.10585841461104     0.00641337227322
   81     0.00009156147281     0.00000512828763     0.00006353711193     0.51894386411116     0.01425573966772
   82     0.00003338754644     0.00000811342821     0.00000310229809     0.06788191142063     0.00094441821703
   83     0.00003660507120     0.00000898923234     0.00000561952132     0.07803179680842     0.00190066817872

                76                  77                  78                  79                  80

    1     0.00000003436785     0.00000000807393     0.00000004059798     0.00000001574308     0.00000027831675
    2     0.00000008342369     0.00000001770646     0.00000009276972     0.00000003620595     0.00000055780778
    3     0.00000021203332     0.00000009208473     0.00000037241364     0.00000015338135     0.00000456350930
    4     0.00000016184136     0.00000007735034     0.00000037453264     0.00000012382767     0.00000504163203
    5     0.00000095236585     0.00000028339970     0.00000141325233     0.00000054379668     0.00001364384894
    6     0.00000061246476     0.00000009933860     0.00000053524848     0.00000016254119     0.00000144572166
    7     0.00000213330778     0.00000021939208     0.00000202971727     0.00000074980582     0.00001266734234
    8     0.00000047256093     0.00000024068312     0.00000037293080     0.00000025063817     0.00000067506603
    9     0.00000930160088     0.00000089263802     0.00000925303453     0.00000210799242     0.00000565211336
   10     0.00008601265596     0.00000526752579     0.00009536358679     0.00001726097232     0.00006922001473
   11     0.00018943087259     0.00001673211775     0.00020375300951     0.00004714950754     0.00013434470466
   12     0.00017437893252     0.00002213521886     0.00026540145839     0.00005935030525     0.00020861451390
   13     0.00037221192521     0.00009987501206     0.00043642898078     0.00013804050460     0.00035022998325
   14     0.00096851335259     0.00009994128556     0.00062978781221     0.00004969845984     0.00044335183672
   15     0.00581588589268     0.00040360089742     0.00773806182785     0.00068910231665     0.00476935878022
   16     0.04649200358463     0.00206987073906     0.02630479729018     0.00149703869527     0.03877931612179
   17     0.00131144845820     0.00008840720650     0.00161539219751     0.00010785674264     0.00060479014868
   18     0.00104656645203     0.00021676740297     0.00730199432091     0.00024503848707     0.00067153688276
   19     0.00032205754346     0.00022132743760     0.00214777975012     0.00015837979380     0.00013419739518
   20     0.00029585106841     0.00019038280044     0.00621691270837     0.00016710992807     0.00021204156199
   21     0.00009119851084     0.00021581121675     0.00495350379611     0.00017342612252     0.00020340694140
   22     0.00004101094056     0.00004062547574     0.00081483662436     0.00006693441302     0.00006523587066
   23     0.00019763306212     0.00010456403846     0.00150600470906     0.00012372375470     0.00026902669501
   24     0.00061490214227     0.00136105577527     0.00349319844167     0.00080117310390     0.00046008755237
   25     0.00285936317209     0.00426366102747     0.01919204997123     0.00101549572825     0.00132405703232
   26     0.00034835087016     0.00069048574764     0.00187466228918     0.00016876630268     0.00013268891655
   27     0.00051359780280     0.00106804014871     0.02696687081486     0.00078203512162     0.00101812781878
   28     0.00028779705247     0.00048332847809     0.00403905219576     0.00037120494315     0.00040663996627
   29     0.00079852125205     0.00032859050604     0.00214091222203     0.00028337315743     0.00049227702371
   30     0.00024153234371     0.00019856506840     0.00166127781748     0.00008460731549     0.00011362952208
   31     0.00236046856426     0.00162109574726     0.00874947052771     0.00032884459781     0.00094769107765
   32     0.00012689679336     0.00009229698221     0.00020182847890     0.00009963746897     0.00018139019662
   33     0.00034544910087     0.00001511077321     0.00043259642151     0.00007435957954     0.00031497435697
   34     0.00004023723656     0.00002210870777     0.00010533275941     0.00002978435716     0.00036021715463
   35     0.00004273115285     0.00003172720978     0.00005169772209     0.00003497657370     0.00007477887747
   36     0.00000000354055     0.00000000095741     0.00000000486139     0.00000000203726     0.00000004583215
   37     0.00000000128068     0.00000000031728     0.00000000174070     0.00000000068699     0.00000001420808
   38     0.00000000227300     0.00000000100450     0.00000000627567     0.00000000205130     0.00000009042246
   39     0.00000002641084     0.00000001558071     0.00000003717501     0.00000002871494     0.00000041808773
   40     0.00000003783276     0.00000001985535     0.00000011104054     0.00000003480624     0.00000165895770
   41     0.00000000186582     0.00000000095287     0.00000000745539     0.00000000236632     0.00000011044780
   42     0.00000014505707     0.00000005638120     0.00000030613883     0.00000011203783     0.00000404308750
   43     0.00000011079159     0.00000000825676     0.00000012393873     0.00000003146207     0.00000008881599
   44     0.00000430127766     0.00000052108687     0.00000439483490     0.00000092554719     0.00000293419681
   45     0.00000742978443     0.00000039214452     0.00000756324861     0.00000150152147     0.00000431830515
   46     0.00005026077027     0.00000307466456     0.00005502689105     0.00000958633971     0.00003595018819
   47     0.00001169986274     0.00000079375908     0.00001437576397     0.00000251903330     0.00000849871016
   48     0.00000982886631     0.00001227605185     0.00000576126908     0.00001253950557     0.00001254246171
   49     0.00014230941267     0.00000674242771     0.00014399601104     0.00002577957974     0.00008791704290
   50     0.00002055582248     0.00000054564930     0.00002459201204     0.00000285273885     0.00003729769357
   51     0.00016701845996     0.00006645712693     0.00013102516035     0.00007300638017     0.00011417593972
   52     0.00043888391869     0.00024602358324     0.00029736475203     0.00023879621775     0.00036260423148
   53     0.00006369421916     0.00003963438411     0.00012963041595     0.00003162567924     0.00004921119581
   54     0.00019807253872     0.00014007625460     0.00010254216485     0.00010503971228     0.00012833207974
   55     0.00016169911889     0.00064262565900     0.01709698202214     0.00140051482563     0.00339423780497
   56     0.00011801304837     0.00013108701285     0.00282061054738     0.00019162757281     0.00012163627401
   57     0.00001437165671     0.00002724340032     0.00017564085722     0.00003901485487     0.00002625833588
   58     0.00006007356724     0.00005202086686     0.00005579874833     0.00003647515131     0.00001679863848
   59     0.00046805725318     0.00038845607380     0.00104693234693     0.00015933505896     0.00008892368723
   60     0.00008866868330     0.00008687122298     0.00021148805841     0.00010410061936     0.00004330054096
   61     0.00015934122916     0.00025263554168     0.00012309379993     0.00024743373257     0.00013287261966
   62     0.00006595002036     0.00038772700347     0.01804465810073     0.00143415915226     0.00153391599242
   63     0.00013595915679     0.00015690849961     0.00270144130624     0.00012464339796     0.00010608116857
   64     0.00012899211112     0.00019487244210     0.00080436861944     0.00016616659754     0.00009387191721
   65     0.00048286910715     0.00053999011463     0.00086701422037     0.00065385869923     0.00039977478054
   66     0.00041234471462     0.00040143949648     0.00028638657759     0.00024970859352     0.00017232202294
   67     0.00008466903694     0.00007636811858     0.00008162955304     0.00005433662238     0.00004784894414
   68     0.00006554554301     0.00006149050246     0.00039501152228     0.00005561012081     0.00004839085577
   69     0.00002030620702     0.00011352970050     0.00071182125071     0.00003882930740     0.00003662754516
   70     0.00111999247538     0.00160693924875     0.00109107855192     0.00076698090707     0.00079148078098
   71     0.00003207998580     0.00004143292313     0.00002885813765     0.00004011576826     0.00004183822529
   72     0.00000789605069     0.00001011070742     0.00000695079677     0.00000959814288     0.00000901874940
   73     0.00000599253480     0.00000253582674     0.00000300106189     0.00000177586695     0.00000497960382
   74     0.07953125602342     0.08278483688994     0.89562237171343     0.06947644378077     0.10585841461104
   75     0.93523043768713     0.93925001927145     0.04714271063925     0.00181740159311     0.00641337227322
   76     0.00000000000000     0.04811759945802     0.00764124450188     0.00073008516714     0.00147586256675
   77     0.04811759945802     0.00000000000000     0.00505817867107     0.00114205844236     0.00139787361756
   78     0.00764124450188     0.00505817867107     0.00000000000000     0.95767111872811     1.04856896722317
   79     0.00073008516714     0.00114205844236     0.95767111872811     0.00000000000000     0.04790182850833
   80     0.00147586256675     0.00139787361756     1.04856896722317     0.04790182850833     0.00000000000000
   81     0.00173466408121     0.00297981787515     0.00608275531952     0.00085840700693     0.00200886654498
   82     0.00082009825476     0.00114859458717     0.00218890991399     0.00073839427873     0.00093907191415
   83     0.00113833896367     0.00083341774778     0.00203739603118     0.00057223538621     0.00046974011558

                81                  82                  83

    1     0.00000199126716     0.00000004632875     0.00000010100284
    2     0.00000387013108     0.00000009081696     0.00000019659565
    3     0.00002496044918     0.00000059620635     0.00000128162069
    4     0.00002664366531     0.00000061950282     0.00000134900365
    5     0.00008062613522     0.00000189841300     0.00000410096844
    6     0.00000769424376     0.00000023656364     0.00000046012281
    7     0.00006605868475     0.00000160769777     0.00000338917013
    8     0.00000085731797     0.00000018241955     0.00000020871884
    9     0.00000179996704     0.00000051350335     0.00000056264431
   10     0.00000665248573     0.00000173074808     0.00000163979656
   11     0.00001094101724     0.00001045985563     0.00000891501608
   12     0.00003391673388     0.00001802746981     0.00001776177281
   13     0.00010001524072     0.00009617218193     0.00011769592236
   14     0.00008078295472     0.00002022672835     0.00002341912171
   15     0.00112944542604     0.00016658142074     0.00058729363070
   16     0.00392237060565     0.00032585575144     0.00047793131022
   17     0.00258957661763     0.00011558109533     0.00031650337303
   18     0.05105980606587     0.00126914280752     0.00299055148113
   19     0.02165167824177     0.00059353760748     0.00128316232786
   20     0.13445966476862     0.00307326753481     0.00642593728193
   21     0.05385493008123     0.00128877447111     0.00261503418188
   22     0.01046398681169     0.00028006329724     0.00049526484273
   23     0.00987670644627     0.00055749298127     0.00055613805146
   24     0.00365435018174     0.00199931401454     0.00041662629189
   25     0.01132902939242     0.01264860853133     0.00151740953231
   26     0.00437815854017     0.00028497523477     0.00034011273078
   27     0.20845529689744     0.00453197565435     0.01110429484753
   28     0.06651921959232     0.00193679483086     0.00343608675254
   29     0.00410529435936     0.00021129888758     0.00038010374906
   30     0.00527899426884     0.00017388383008     0.00025361449193
   31     0.01252413637392     0.00111110160468     0.00101387055454
   32     0.00007422897131     0.00006972537802     0.00007770839515
   33     0.00025713024545     0.00000914193200     0.00001343379257
   34     0.00025151858964     0.00002093951521     0.00002980553884
   35     0.00015581398625     0.00002758803858     0.00003524436737
   36     0.00000027207770     0.00000000643754     0.00000001388691
   37     0.00000008592783     0.00000000203792     0.00000000439082
   38     0.00000050104773     0.00000001165271     0.00000002544533
   39     0.00000258545011     0.00000007481149     0.00000014766912
   40     0.00000878536700     0.00000020279137     0.00000044373677
   41     0.00000056707557     0.00000001363688     0.00000002920020
   42     0.00002251385306     0.00000052398756     0.00000114098000
   43     0.00000019550204     0.00000000933868     0.00000001281809
   44     0.00000092294746     0.00000016588287     0.00000026330581
   45     0.00000075134731     0.00000011099757     0.00000007043998
   46     0.00000212736788     0.00000028565711     0.00000016372514
   47     0.00000097447787     0.00000005550018     0.00000008795277
   48     0.00000476234781     0.00000829507499     0.00000858101278
   49     0.00000644079155     0.00000102714017     0.00000049344723
   50     0.00000187389218     0.00000016380911     0.00000012820362
   51     0.00003363969274     0.00004341399396     0.00005467985983
   52     0.00008536964828     0.00023393491705     0.00033818648499
   53     0.00006107753204     0.00001600535767     0.00002241059592
   54     0.00307588884721     0.00012524691054     0.00024356364185
   55     0.00274023597957     0.00032624822754     0.00015187049262
   56     0.03949960887382     0.00099002384684     0.00210513832944
   57     0.00290057136961     0.00011044489772     0.00015325656892
   58     0.00016005710829     0.00003318127105     0.00003596341225
   59     0.00090788496944     0.00057835692692     0.00024830746346
   60     0.00049599537996     0.00012394840428     0.00015374686842
   61     0.00034243414740     0.00036596559269     0.00021191967908
   62     0.01262937624122     0.00050926023866     0.00058095736692
   63     0.04538372884585     0.00097898333828     0.00227885737299
   64     0.01984052305433     0.00075066183519     0.00104143417541
   65     0.01040853127888     0.00124317742528     0.00128768223706
   66     0.00073142500655     0.00025023244339     0.00032150019366
   67     0.00024276668500     0.00004485936047     0.00005767133253
   68     0.00124392569267     0.00006561919940     0.00011893606865
   69     0.00151645348978     0.00005130671273     0.00007807966263
   70     0.00326623483732     0.00139568871831     0.00054111968867
   71     0.00009156147281     0.00003338754644     0.00003660507120
   72     0.00000512828763     0.00000811342821     0.00000898923234
   73     0.00006353711193     0.00000310229809     0.00000561952132
   74     0.51894386411116     0.06788191142063     0.07803179680842
   75     0.01425573966772     0.00094441821703     0.00190066817872
   76     0.00173466408121     0.00082009825476     0.00113833896367
   77     0.00297981787515     0.00114859458717     0.00083341774778
   78     0.00608275531952     0.00218890991399     0.00203739603118
   79     0.00085840700693     0.00073839427873     0.00057223538621
   80     0.00200886654498     0.00093907191415     0.00046974011558
   81     0.00000000000000     0.92215291455560     1.02882192407842
   82     0.92215291455560     0.00000000000000     0.04640343407947
   83     1.02882192407842     0.04640343407947     0.00000000000000



  Atomic Valences: 

 #  #
 Irrep: 1
      1:    3.249973595564871
      2:    3.793428047437381
      3:    4.197923142596255
      4:    4.180337353893805
      5:    3.167979292858477
      6:    4.930145654325628
      7:    2.792717576665834
      8:    4.112415085434532
      9:    4.183337360105178
     10:    4.182792717036400
     11:    4.227367071597233
     12:    4.176508164410420
     13:    4.312487883838378
     14:    4.157445514976319
     15:    4.705687421238717
     16:    2.819585822294675
     17:    4.394209540903216
     18:    3.967659961493605
     19:    4.821765566473524
     20:    2.922548579308421
     21:    4.422632932769326
     22:    4.201207426129052
     23:    4.222196658575966
     24:    4.764935001416837
     25:    2.466291771654848
     26:    3.115698391441185
     27:    4.081419078610975
     28:    4.071942255758050
     29:    4.531174938663640
     30:    4.080067629225727
     31:    2.829395871374343
     32:    4.860656652638514
     33:    2.983187813302759
     34:    3.213543085455613
     35:    3.979188231389443
     36:    1.028615066762139
     37:    1.031918022338401
     38:    1.035507809895169
     39:    1.037100859891922
     40:    1.055892444133677
     41:    1.052644690016604
     42:    1.057473823768111
     43:    1.038389663865838
     44:    1.067028562549677
     45:    1.032290600811696
     46:    1.069645933188783
     47:    1.041468096243418
     48:    1.036782540342953
     49:    1.004546925531619
     50:    1.074790700266731
     51:    1.030428250876074
     52:    1.061765120725741
     53:    1.065199444996681
     54:    1.069200487186545
     55:    1.252584712710234
     56:    1.055219265847122
     57:    1.069837503726096
     58:    1.078524778690144
     59:    1.195313709238165
     60:    1.047799466208890
     61:    1.084209874106629
     62:    1.238959070047881
     63:    1.047724883335276
     64:    1.103685065385080
     65:    1.124928792462636
     66:    1.127512091391721
     67:    1.104399356699287
     68:    1.047360175003789
     69:    1.046038730460805
     70:    1.424458241152352
     71:    1.016860304002818
     72:    1.050553012498202
     73:    1.090905350165753
     74:    6.314984990048912
     75:    2.794173761502800
     76:    1.147164806891544
     77:    1.102376626574465
     78:    3.148636742202078
     79:    1.094805156486993
     80:    1.275780184071387
     81:    3.250056415023572
     82:    1.082357911723302
     83:    1.204844261926469

